30

N      -2.416300000000000     -0.672800000000000     -0.749500000000000
N      -1.438200000000000      0.652300000000000      0.821100000000000
C       0.078800000000000     -0.541800000000000     -0.706500000000000
C       0.796500000000000      0.695300000000000     -1.256500000000000
C       0.811900000000000     -1.335700000000000      0.379000000000000
C       1.552500000000000      1.524500000000000     -0.218700000000000
C       2.321300000000000     -1.457800000000000      0.187600000000000
C       2.977700000000000      1.027300000000000      0.014600000000000
C       3.090300000000000     -0.282200000000000      0.786600000000000
C      -1.283600000000000     -0.160800000000000     -0.192900000000000
C      -3.568900000000000     -0.187900000000000     -0.052300000000000
C      -2.922000000000000      0.739500000000000      0.987500000000000
H      -0.079700000000000     -1.214800000000000     -1.561000000000000
H       0.057200000000000      1.346600000000000     -1.742300000000000
H       1.486400000000000      0.389300000000000     -2.053300000000000
H       0.385200000000000     -2.348500000000000      0.386300000000000
H       0.602900000000000     -0.936100000000000      1.379500000000000
H       1.011100000000000      1.596100000000000      0.729500000000000
H       1.628500000000000      2.548700000000000     -0.606300000000000
H       2.578300000000000     -1.601000000000000     -0.868100000000000
H       2.651600000000000     -2.363500000000000      0.712400000000000
H       3.524800000000000      1.797000000000000      0.573600000000000
H       3.495000000000000      0.927200000000000     -0.947800000000000
H       4.152300000000000     -0.553800000000000      0.835900000000000
H       2.770000000000000     -0.121500000000000      1.823600000000000
H      -2.461300000000000     -1.326200000000000     -1.521600000000000
H      -4.116700000000000     -1.004700000000000      0.426700000000000
H      -4.242400000000000      0.360300000000000     -0.717200000000000
H      -3.241900000000000      1.776600000000000      0.839600000000000
H      -3.194600000000000      0.438500000000000      2.004500000000000
