30

N      -2.213400000000000     -1.451800000000000      0.000000000000000
N      -2.147500000000000      1.489300000000000     -0.025900000000000
C      -0.941300000000000     -0.726300000000000      0.006100000000000
C       0.271000000000000      1.418400000000000      0.587600000000000
C       1.445300000000000     -0.800400000000000      0.855400000000000
C       0.961900000000000      0.095700000000000     -1.449000000000000
C      -1.098700000000000      0.695200000000000      0.622800000000000
C       0.083100000000000     -1.516800000000000      0.857900000000000
C      -0.399000000000000     -0.624700000000000     -1.440500000000000
C       1.277200000000000      0.614300000000000      1.433600000000000
C       0.802000000000000      1.506500000000000     -0.857800000000000
C       1.959400000000000     -0.699500000000000     -0.590100000000000
H       0.177100000000000      2.427800000000000      1.006300000000000
H       2.160800000000000     -1.365500000000000      1.463100000000000
H       1.335500000000000      0.166200000000000     -2.476800000000000
H      -1.401400000000000      0.589700000000000      1.674300000000000
H       0.207000000000000     -2.534900000000000      0.464900000000000
H      -0.274400000000000     -1.620700000000000      1.891000000000000
H      -1.105300000000000     -0.086200000000000     -2.085500000000000
H      -0.281900000000000     -1.625900000000000     -1.876700000000000
H       0.931400000000000      0.556000000000000      2.473000000000000
H       2.246000000000000      1.128700000000000      1.450500000000000
H       1.768200000000000      2.026300000000000     -0.867500000000000
H       0.121900000000000      2.099300000000000     -1.480600000000000
H       2.940700000000000     -0.209500000000000     -0.605200000000000
H       2.098900000000000     -1.703300000000000     -1.009800000000000
H      -2.556700000000000     -1.555200000000000      0.954200000000000
H      -2.074000000000000     -2.396500000000000     -0.356500000000000
H      -2.250500000000000      2.379900000000000      0.458400000000000
H      -3.040500000000000      1.005900000000000      0.059100000000000
