30

N       0.736800000000000      1.062700000000000      0.562400000000000
N       1.720200000000000     -2.186600000000000      0.236200000000000
C      -0.528300000000000      0.588000000000000      0.004000000000000
C      -0.667500000000000     -0.931100000000000      0.193900000000000
C      -1.707000000000000      1.329800000000000      0.634200000000000
C      -2.117100000000000     -1.422700000000000      0.123800000000000
C      -3.038400000000000      0.926700000000000     -0.008700000000000
C      -3.019500000000000     -0.465500000000000     -0.642100000000000
C       1.864600000000000      0.424700000000000     -0.099400000000000
C       3.171800000000000      0.955200000000000      0.501400000000000
C       1.801800000000000      0.755800000000000     -1.594900000000000
C       1.782600000000000     -1.036900000000000      0.089200000000000
H      -0.594100000000000      0.832300000000000     -1.062100000000000
H      -0.310800000000000     -1.276700000000000      1.170800000000000
H      -0.250500000000000     -1.439800000000000     -0.680400000000000
H      -1.580600000000000      2.416100000000000      0.547000000000000
H      -1.749100000000000      1.108900000000000      1.709300000000000
H      -2.156400000000000     -2.424100000000000     -0.321700000000000
H      -2.509100000000000     -1.528700000000000      1.144100000000000
H      -3.825600000000000      0.977200000000000      0.753500000000000
H      -3.313600000000000      1.657500000000000     -0.778900000000000
H      -2.669300000000000     -0.391300000000000     -1.679400000000000
H      -4.040600000000000     -0.861200000000000     -0.687100000000000
H       0.765600000000000      0.887400000000000      1.566800000000000
H       3.237100000000000      0.742000000000000      1.575700000000000
H       4.045200000000000      0.490500000000000      0.028000000000000
H       3.260100000000000      2.040100000000000      0.369900000000000
H       1.039900000000000      0.194700000000000     -2.147500000000000
H       2.753200000000000      0.496300000000000     -2.078400000000000
H       1.646700000000000      1.827600000000000     -1.769500000000000
