30

N       0.095000000000000     -0.521600000000000      0.353500000000000
N       1.070700000000000     -2.627500000000000      0.508700000000000
C       0.091700000000000      0.852400000000000     -0.147400000000000
C       1.197100000000000      1.679400000000000      0.521000000000000
C       2.567600000000000      1.504200000000000     -0.134400000000000
C       3.117600000000000      0.081400000000000     -0.085800000000000
C       2.235700000000000     -0.923200000000000     -0.816300000000000
C      -1.279800000000000      1.434600000000000      0.203700000000000
C       1.054900000000000     -1.333000000000000      0.048100000000000
C      -2.379500000000000      0.631500000000000     -0.416900000000000
C      -3.339800000000000      0.017700000000000      0.289400000000000
C      -4.431200000000000     -0.795700000000000     -0.323500000000000
H       0.199100000000000      0.873800000000000     -1.239700000000000
H       1.266400000000000      1.434300000000000      1.588400000000000
H       0.944900000000000      2.745700000000000      0.458400000000000
H       3.280400000000000      2.169300000000000      0.368300000000000
H       2.516500000000000      1.839800000000000     -1.177900000000000
H       3.262800000000000     -0.222400000000000      0.958100000000000
H       4.108100000000000      0.085100000000000     -0.556900000000000
H       2.832400000000000     -1.815100000000000     -1.043000000000000
H       1.881300000000000     -0.534200000000000     -1.776300000000000
H      -1.402600000000000      1.480400000000000      1.293800000000000
H      -1.353600000000000      2.464300000000000     -0.166700000000000
H      -2.385100000000000      0.558400000000000     -1.501800000000000
H       0.322300000000000     -2.978200000000000      1.096800000000000
H       1.821600000000000     -3.272300000000000      0.286500000000000
H      -3.340200000000000      0.091500000000000      1.373600000000000
H      -4.387500000000000     -1.821900000000000      0.053900000000000
H      -4.360100000000000     -0.830600000000000     -1.415300000000000
H      -5.404900000000000     -0.372700000000000     -0.058400000000000
