30

N      -2.465200000000000     -1.443500000000000     -0.000200000000000
N       2.464700000000000     -1.444000000000000      0.000000000000000
C      -1.270200000000000     -0.601200000000000      0.005400000000000
C       1.264600000000000     -0.609000000000000      0.000200000000000
C       0.000400000000000      1.177600000000000     -1.263000000000000
C       0.005400000000000      1.185400000000000      1.257400000000000
C      -0.005500000000000     -1.491000000000000      0.005600000000000
C      -1.257500000000000      0.290900000000000     -1.254600000000000
C      -1.252500000000000      0.298600000000000      1.259800000000000
C       1.252500000000000      0.282900000000000     -1.259700000000000
C       1.257600000000000      0.290800000000000      1.254700000000000
C       0.005700000000000      2.062400000000000     -0.005600000000000
H       0.000500000000000      1.809000000000000     -2.158600000000000
H       0.009100000000000      1.822300000000000      2.149100000000000
H      -0.005100000000000     -2.146100000000000      0.888300000000000
H      -0.008100000000000     -2.151100000000000     -0.873300000000000
H      -2.153700000000000      0.924700000000000     -1.284800000000000
H      -1.276700000000000     -0.325300000000000     -2.163400000000000
H      -1.268800000000000     -0.312700000000000      2.171800000000000
H      -2.148800000000000      0.932200000000000      1.289300000000000
H       1.264900000000000     -0.333700000000000     -2.168300000000000
H       2.152200000000000      0.911700000000000     -1.293600000000000
H       2.157400000000000      0.919800000000000      1.281000000000000
H       1.273600000000000     -0.320200000000000      2.167000000000000
H       0.888700000000000      2.713100000000000     -0.009300000000000
H      -0.873200000000000      2.718800000000000     -0.005800000000000
H      -2.462700000000000     -2.054300000000000      0.815800000000000
H      -2.453900000000000     -2.057400000000000     -0.814000000000000
H       2.458300000000000     -2.059300000000000     -0.812800000000000
H       2.462200000000000     -2.054200000000000      0.816600000000000
