30

N      -2.525000000000000     -0.133200000000000      0.322000000000000
N      -4.374700000000000      0.901500000000000     -0.289700000000000
C       1.350900000000000     -0.276200000000000      0.576400000000000
C       2.486900000000000      0.082600000000000     -0.384000000000000
C      -0.043100000000000     -0.047700000000000     -0.018400000000000
C       3.851500000000000     -0.072700000000000      0.291100000000000
C      -1.213600000000000     -0.343900000000000      0.924200000000000
C       4.989800000000000      0.256600000000000     -0.674500000000000
C       6.348500000000000      0.070800000000000     -0.018000000000000
C      -3.249200000000000     -1.065100000000000     -0.347900000000000
C      -3.226800000000000      1.029100000000000      0.338000000000000
C      -4.395100000000000     -0.401800000000000     -0.719300000000000
H       1.444900000000000     -1.326800000000000      0.877500000000000
H       1.445300000000000      0.324800000000000      1.489400000000000
H       2.365000000000000      1.116900000000000     -0.727700000000000
H       2.432700000000000     -0.561600000000000     -1.269700000000000
H      -0.146600000000000     -0.664100000000000     -0.920900000000000
H      -0.118000000000000      0.994400000000000     -0.355800000000000
H       3.908200000000000      0.586900000000000      1.165600000000000
H       3.964900000000000     -1.101500000000000      0.654400000000000
H      -1.178400000000000     -1.385900000000000      1.263500000000000
H      -1.160700000000000      0.293300000000000      1.814600000000000
H       4.927700000000000     -0.389400000000000     -1.558000000000000
H       4.895300000000000      1.291800000000000     -1.022000000000000
H       7.147600000000000      0.312800000000000     -0.725600000000000
H       6.487500000000000     -0.964200000000000      0.310400000000000
H       6.456000000000000      0.725300000000000      0.852900000000000
H      -2.910200000000000     -2.079800000000000     -0.503300000000000
H      -2.865000000000000      1.931500000000000      0.811900000000000
H      -5.233300000000000     -0.796300000000000     -1.274900000000000
