30

N       1.419800000000000      0.556900000000000     -0.272800000000000
N      -1.419500000000000      0.556700000000000      0.272600000000000
C      -0.736700000000000     -0.648800000000000     -0.212900000000000
C       0.736400000000000     -0.649400000000000      0.210000000000000
C      -0.736500000000000      1.762300000000000     -0.212200000000000
C       0.736300000000000      1.762400000000000      0.211900000000000
C       2.823400000000000      0.556700000000000      0.134700000000000
C      -2.823500000000000      0.556900000000000     -0.132900000000000
C       3.497200000000000     -0.645800000000000     -0.437800000000000
C      -3.496400000000000     -0.646400000000000      0.438800000000000
C       4.106500000000000     -1.580900000000000      0.299900000000000
C      -4.106800000000000     -1.580500000000000     -0.299200000000000
H      -0.805200000000000     -0.725400000000000     -1.307100000000000
H      -1.175700000000000     -1.560400000000000      0.207800000000000
H      -1.215900000000000      2.654600000000000      0.208500000000000
H      -0.805200000000000      1.839400000000000     -1.305900000000000
H       0.804700000000000     -0.728100000000000      1.303900000000000
H       1.175300000000000     -1.560100000000000     -0.212500000000000
H       1.215700000000000      2.654800000000000     -0.208500000000000
H       0.804800000000000      1.839100000000000      1.305600000000000
H       3.327400000000000      1.445400000000000     -0.264300000000000
H       2.922900000000000      0.589400000000000      1.227400000000000
H      -3.327100000000000      1.445100000000000      0.268000000000000
H      -2.924700000000000      0.591200000000000     -1.225500000000000
H       3.506800000000000     -0.754400000000000     -1.520000000000000
H      -3.504500000000000     -0.756500000000000      1.520900000000000
H       4.587000000000000     -2.428700000000000     -0.176100000000000
H       4.136000000000000     -1.520300000000000      1.382100000000000
H      -4.586600000000000     -2.429000000000000      0.176100000000000
H      -4.138000000000000     -1.518300000000000     -1.381300000000000
