30

N       1.519300000000000     -0.135800000000000     -0.508700000000000
N       2.981200000000000      0.920500000000000      0.787100000000000
C      -0.640500000000000     -1.402100000000000     -0.391600000000000
C      -1.602600000000000     -0.214100000000000     -0.500800000000000
C       0.715800000000000     -1.211700000000000     -1.077300000000000
C      -2.966600000000000     -0.475800000000000      0.141600000000000
C      -3.850600000000000      0.770900000000000      0.088400000000000
C       2.424000000000000     -0.237700000000000      0.511300000000000
C       1.498200000000000      1.170600000000000     -0.908600000000000
C      -5.191700000000000      0.532000000000000      0.763600000000000
C       2.408000000000000      1.802900000000000     -0.094200000000000
C       2.705500000000000     -1.519700000000000      1.189200000000000
H      -1.122000000000000     -2.283500000000000     -0.833100000000000
H      -0.483200000000000     -1.631400000000000      0.669500000000000
H      -1.154400000000000      0.660700000000000     -0.016200000000000
H      -1.742900000000000      0.041900000000000     -1.558200000000000
H       1.303200000000000     -2.134300000000000     -1.027000000000000
H       0.575800000000000     -0.979900000000000     -2.139900000000000
H      -3.462600000000000     -1.307000000000000     -0.373700000000000
H      -2.825200000000000     -0.780300000000000      1.185700000000000
H      -3.345600000000000      1.608300000000000      0.583900000000000
H      -4.017900000000000      1.063900000000000     -0.954500000000000
H       0.863700000000000      1.527000000000000     -1.708000000000000
H      -5.738000000000000     -0.280500000000000      0.273900000000000
H      -5.059100000000000      0.270600000000000      1.818300000000000
H      -5.808100000000000      1.435000000000000      0.712400000000000
H       2.680000000000000      2.848300000000000     -0.098100000000000
H       1.793400000000000     -1.961100000000000      1.601700000000000
H       3.164900000000000     -2.234600000000000      0.499700000000000
H       3.402400000000000     -1.366000000000000      2.019600000000000
