30

N       0.652300000000000     -0.415700000000000      0.110600000000000
N      -5.090600000000000      0.846900000000000     -0.583600000000000
C       0.791900000000000      0.906600000000000      0.730100000000000
C       1.744600000000000     -1.341400000000000      0.414000000000000
C       2.180700000000000      1.552100000000000      0.702700000000000
C       2.845500000000000     -1.241700000000000     -0.645800000000000
C       2.960900000000000      1.333100000000000     -0.589300000000000
C       3.718900000000000      0.007800000000000     -0.583800000000000
C      -0.647800000000000     -0.992700000000000      0.458400000000000
C      -1.778500000000000     -0.110700000000000     -0.069000000000000
C      -3.146300000000000     -0.706600000000000      0.265100000000000
C      -4.231600000000000      0.162200000000000     -0.209500000000000
H       0.457200000000000      0.891100000000000      1.776000000000000
H       0.146700000000000      1.612000000000000      0.194000000000000
H       1.383800000000000     -2.377800000000000      0.373100000000000
H       2.140500000000000     -1.202900000000000      1.427600000000000
H       2.049900000000000      2.631500000000000      0.853400000000000
H       2.769700000000000      1.199400000000000      1.558600000000000
H       3.501400000000000     -2.116000000000000     -0.544900000000000
H       2.397500000000000     -1.318200000000000     -1.645500000000000
H       3.702200000000000      2.137000000000000     -0.679900000000000
H       2.307400000000000      1.408500000000000     -1.465900000000000
H       4.399300000000000     -0.008100000000000     -1.444300000000000
H       4.356300000000000     -0.043900000000000      0.307800000000000
H      -0.741500000000000     -1.135900000000000      1.542600000000000
H      -0.751500000000000     -1.980400000000000     -0.008900000000000
H      -1.683200000000000      0.018200000000000     -1.155200000000000
H      -1.753400000000000      0.889400000000000      0.377800000000000
H      -3.243100000000000     -1.696800000000000     -0.194600000000000
H      -3.238700000000000     -0.843900000000000      1.348800000000000
