30

N      -1.191500000000000     -0.506700000000000      0.222800000000000
N       4.634300000000000      1.474200000000000      0.674600000000000
C      -1.483000000000000      0.021600000000000     -1.117300000000000
C      -2.425600000000000     -0.705200000000000      0.995600000000000
C      -2.225200000000000      1.356300000000000     -1.034500000000000
C      -3.198700000000000      0.605900000000000      1.147500000000000
C      -3.501000000000000      1.231400000000000     -0.209300000000000
C      -0.440800000000000     -1.758500000000000      0.126900000000000
C       0.916100000000000     -1.563200000000000     -0.553300000000000
C       1.807800000000000     -0.543100000000000      0.167700000000000
C       3.135500000000000     -0.302900000000000     -0.554000000000000
C       3.972000000000000      0.690200000000000      0.133300000000000
H      -2.075600000000000     -0.694600000000000     -1.701700000000000
H      -0.567600000000000      0.227500000000000     -1.679500000000000
H      -2.180900000000000     -1.073500000000000      1.999400000000000
H      -3.067900000000000     -1.457900000000000      0.519600000000000
H      -2.471700000000000      1.706900000000000     -2.043300000000000
H      -1.571200000000000      2.113700000000000     -0.583500000000000
H      -2.612700000000000      1.309800000000000      1.752100000000000
H      -4.134800000000000      0.423300000000000      1.687100000000000
H      -3.960800000000000      2.216600000000000     -0.075600000000000
H      -4.225100000000000      0.607200000000000     -0.747200000000000
H      -1.011200000000000     -2.522900000000000     -0.416600000000000
H      -0.258500000000000     -2.154100000000000      1.134400000000000
H       1.434000000000000     -2.531600000000000     -0.548700000000000
H       0.809000000000000     -1.303600000000000     -1.611500000000000
H       2.001600000000000     -0.889800000000000      1.191000000000000
H       1.285600000000000      0.417300000000000      0.259500000000000
H       2.939600000000000      0.037700000000000     -1.577400000000000
H       3.685100000000000     -1.248100000000000     -0.633000000000000
