31

O      -3.464100000000000      0.242600000000000     -0.735000000000000
O      -2.270200000000000      0.977200000000000      1.093700000000000
C       0.737200000000000     -2.042200000000000     -0.543100000000000
C       2.170500000000000     -1.562600000000000     -0.275900000000000
C      -0.327300000000000     -1.166700000000000      0.086100000000000
C       2.427500000000000     -0.176700000000000     -0.798800000000000
C       2.902400000000000      0.889600000000000     -0.127900000000000
C      -0.261800000000000     -1.093600000000000      1.593400000000000
C      -1.302300000000000     -0.498300000000000     -0.559000000000000
C       3.098600000000000      2.205600000000000     -0.832700000000000
C       3.260300000000000      0.909100000000000      1.330800000000000
C      -2.362600000000000      0.335100000000000      0.061800000000000
C      -4.608200000000000      0.981000000000000     -0.293200000000000
H       0.624000000000000     -3.067100000000000     -0.168000000000000
H       0.573100000000000     -2.097100000000000     -1.627400000000000
H       2.395700000000000     -1.659400000000000      0.788800000000000
H       2.859600000000000     -2.245000000000000     -0.789500000000000
H       2.213000000000000     -0.054900000000000     -1.860300000000000
H      -1.249800000000000     -1.048000000000000      2.060700000000000
H       0.209900000000000     -1.994500000000000      2.002600000000000
H       0.329700000000000     -0.229700000000000      1.911700000000000
H      -1.360100000000000     -0.590900000000000     -1.641600000000000
H       2.821100000000000      2.158900000000000     -1.891100000000000
H       2.485300000000000      2.981800000000000     -0.363300000000000
H       4.148600000000000      2.511400000000000     -0.778400000000000
H       3.126900000000000     -0.049600000000000      1.834200000000000
H       4.310200000000000      1.195600000000000      1.454300000000000
H       2.640700000000000      1.642400000000000      1.858100000000000
H      -5.414600000000000      0.821800000000000     -1.014100000000000
H      -4.377200000000000      2.049800000000000     -0.254700000000000
H      -4.936400000000000      0.620400000000000      0.686300000000000
