31

O       0.213200000000000     -0.649800000000000      0.109100000000000
O       2.088600000000000     -1.983800000000000      0.043600000000000
C      -2.070800000000000     -1.370800000000000      0.362800000000000
C      -0.610900000000000     -1.797700000000000      0.266500000000000
C      -2.528000000000000     -0.668400000000000     -0.884600000000000
C      -3.096900000000000      1.460200000000000      0.311800000000000
C      -2.984800000000000      0.592500000000000     -0.906600000000000
C       2.284600000000000      0.410700000000000     -0.144900000000000
C      -4.455500000000000      1.307200000000000      0.977900000000000
C       1.554600000000000     -0.884300000000000      0.008900000000000
C       1.597100000000000      1.534300000000000     -0.862300000000000
C       3.532400000000000      0.444800000000000      0.358200000000000
C       4.476400000000000      1.605000000000000      0.359600000000000
H      -2.691900000000000     -2.265100000000000      0.494300000000000
H      -2.205500000000000     -0.771900000000000      1.266500000000000
H      -0.327500000000000     -2.327300000000000      1.183800000000000
H      -0.468000000000000     -2.471800000000000     -0.587100000000000
H      -2.494800000000000     -1.228400000000000     -1.815700000000000
H      -2.290100000000000      1.285700000000000      1.030300000000000
H      -2.973500000000000      2.503000000000000     -0.006400000000000
H      -3.312900000000000      1.014000000000000     -1.853000000000000
H      -4.534500000000000      1.987400000000000      1.832100000000000
H      -4.608600000000000      0.286900000000000      1.345100000000000
H      -5.267700000000000      1.544800000000000      0.282600000000000
H       2.294200000000000      2.287100000000000     -1.238900000000000
H       1.052000000000000      1.154100000000000     -1.733600000000000
H       0.881700000000000      2.029200000000000     -0.197700000000000
H       3.933700000000000     -0.442600000000000      0.845600000000000
H       4.842400000000000      1.775900000000000      1.377200000000000
H       4.022600000000000      2.537300000000000      0.017000000000000
H       5.337300000000000      1.384100000000000     -0.278600000000000
