31

O       1.780400000000000     -1.191400000000000      0.305800000000000
O       3.887400000000000     -0.239500000000000      0.424900000000000
C       1.293400000000000     -0.049300000000000     -0.420300000000000
C      -0.210100000000000     -0.296900000000000     -0.692800000000000
C      -1.047700000000000     -0.637700000000000      0.544500000000000
C       2.094900000000000     -0.022200000000000     -1.727700000000000
C       1.490100000000000      1.157800000000000      0.473700000000000
C      -2.473600000000000     -0.929500000000000      0.165900000000000
C      -3.496600000000000     -0.057400000000000      0.087900000000000
C       1.777700000000000      2.410700000000000      0.100100000000000
C      -4.904500000000000     -0.413100000000000     -0.298000000000000
C      -3.280000000000000      1.402700000000000      0.382500000000000
C       3.088600000000000     -1.134400000000000      0.653600000000000
H      -0.636200000000000      0.575200000000000     -1.206700000000000
H      -0.296400000000000     -1.140700000000000     -1.392600000000000
H      -0.995100000000000      0.157100000000000      1.294800000000000
H      -0.647200000000000     -1.531900000000000      1.037700000000000
H       2.187200000000000     -1.027000000000000     -2.157200000000000
H       1.590300000000000      0.608200000000000     -2.470300000000000
H       3.106500000000000      0.382400000000000     -1.633800000000000
H       1.333300000000000      0.997200000000000      1.540300000000000
H      -2.677400000000000     -1.971400000000000     -0.076900000000000
H       1.869900000000000      3.196600000000000      0.841900000000000
H       1.919900000000000      2.677900000000000     -0.940600000000000
H      -5.200200000000000      0.124100000000000     -1.204800000000000
H      -5.598200000000000     -0.150700000000000      0.507200000000000
H      -5.010000000000000     -1.485100000000000     -0.494500000000000
H      -3.806300000000000      1.679400000000000      1.302100000000000
H      -2.234000000000000      1.695300000000000      0.494000000000000
H      -3.683800000000000      2.010100000000000     -0.435400000000000
H       3.343800000000000     -2.055700000000000      1.199600000000000
