31

O      -2.877300000000000     -0.539000000000000     -0.757700000000000
O      -4.590800000000000     -0.917600000000000      0.752300000000000
C       1.230200000000000      2.043500000000000     -0.673300000000000
C       2.538500000000000      1.297800000000000     -0.379000000000000
C       0.029100000000000      1.479200000000000      0.056100000000000
C       2.472300000000000     -0.156500000000000     -0.755200000000000
C       2.731700000000000     -1.227700000000000      0.018100000000000
C      -1.067900000000000      0.975000000000000     -0.542000000000000
C       0.105900000000000      1.541400000000000      1.560300000000000
C      -2.301700000000000      0.432000000000000      0.106000000000000
C       2.617200000000000     -2.618700000000000     -0.546800000000000
C       3.130500000000000     -1.178900000000000      1.465600000000000
C      -4.017500000000000     -1.130500000000000     -0.304400000000000
H       1.349000000000000      3.099200000000000     -0.398900000000000
H       1.047700000000000      2.032600000000000     -1.756100000000000
H       2.816800000000000      1.450600000000000      0.666500000000000
H       3.337500000000000      1.760400000000000     -0.972000000000000
H       2.198400000000000     -0.334800000000000     -1.794800000000000
H      -1.086000000000000      0.988700000000000     -1.631400000000000
H       0.565500000000000      2.484600000000000      1.876400000000000
H       0.713000000000000      0.718200000000000      1.948300000000000
H      -0.872200000000000      1.505800000000000      2.047900000000000
H      -3.018000000000000      1.248200000000000      0.253200000000000
H      -2.074700000000000     -0.044900000000000      1.064900000000000
H       1.870700000000000     -3.193700000000000      0.011100000000000
H       2.316400000000000     -2.619200000000000     -1.599800000000000
H       3.579300000000000     -3.136500000000000     -0.476500000000000
H       4.090200000000000     -1.687700000000000      1.606500000000000
H       3.242500000000000     -0.168500000000000      1.861600000000000
H       2.379200000000000     -1.688800000000000      2.078000000000000
H      -4.358600000000000     -1.855700000000000     -1.059100000000000
