31

O       1.678700000000000      0.161500000000000      0.918900000000000
O       3.932100000000000      0.056600000000000      0.398200000000000
C      -0.187400000000000     -0.076700000000000     -0.572900000000000
C       1.334500000000000     -0.067100000000000     -0.448500000000000
C      -0.800100000000000     -1.238000000000000      0.216400000000000
C      -0.781800000000000      1.259400000000000     -0.099400000000000
C      -2.322000000000000     -1.280700000000000      0.047600000000000
C      -2.980500000000000      0.073400000000000      0.134200000000000
C      -2.270800000000000      1.213600000000000      0.081100000000000
C       1.944500000000000      1.049200000000000     -1.295700000000000
C       1.915600000000000     -1.422200000000000     -0.847800000000000
C      -4.473400000000000      0.074200000000000      0.280900000000000
C       3.010500000000000      0.196800000000000      1.187000000000000
H      -0.457400000000000     -0.215600000000000     -1.630400000000000
H      -0.563100000000000     -1.138400000000000      1.283800000000000
H      -0.409500000000000     -2.208400000000000     -0.106300000000000
H      -0.558500000000000      2.039600000000000     -0.836800000000000
H      -0.345400000000000      1.584100000000000      0.852300000000000
H      -2.736300000000000     -1.945700000000000      0.815000000000000
H      -2.567000000000000     -1.722200000000000     -0.926600000000000
H      -2.778400000000000      2.170900000000000      0.167300000000000
H       1.456700000000000      1.102900000000000     -2.276300000000000
H       3.008500000000000      0.915100000000000     -1.511100000000000
H       1.844800000000000      2.027300000000000     -0.811200000000000
H       2.973100000000000     -1.380300000000000     -1.127100000000000
H       1.840000000000000     -2.160700000000000     -0.041500000000000
H       1.405400000000000     -1.821100000000000     -1.732900000000000
H      -4.937500000000000     -0.439900000000000     -0.566900000000000
H      -4.884200000000000      1.088600000000000      0.321000000000000
H      -4.765100000000000     -0.440400000000000      1.202100000000000
H       3.144500000000000      0.378100000000000      2.264400000000000
