31

O      -3.889800000000000      0.287300000000000     -0.029200000000000
O      -3.010900000000000     -1.851500000000000      0.058900000000000
C       3.345000000000000      0.716600000000000      0.047500000000000
C       4.441200000000000     -0.349700000000000     -0.003100000000000
C       1.951100000000000      0.079700000000000      0.047100000000000
C       5.832000000000000      0.283600000000000     -0.032500000000000
C       0.824800000000000      1.114800000000000      0.067600000000000
C       6.923200000000000     -0.771700000000000     -0.117300000000000
C      -0.505300000000000      0.490500000000000      0.053200000000000
C      -1.592700000000000     -0.019200000000000      0.041300000000000
C      -5.218400000000000     -0.244700000000000     -0.049000000000000
C      -2.893100000000000     -0.635700000000000      0.025500000000000
C      -6.207100000000000      0.900000000000000     -0.110100000000000
H       3.467500000000000      1.331100000000000      0.947500000000000
H       3.440600000000000      1.384500000000000     -0.817100000000000
H       4.354800000000000     -1.009000000000000      0.869200000000000
H       4.304400000000000     -0.973800000000000     -0.894600000000000
H       1.854300000000000     -0.583000000000000      0.916900000000000
H       1.843200000000000     -0.556400000000000     -0.841300000000000
H       5.917100000000000      0.956600000000000     -0.893700000000000
H       5.984400000000000      0.888900000000000      0.868700000000000
H       0.921500000000000      1.742900000000000      0.960900000000000
H       0.922000000000000      1.778800000000000     -0.799400000000000
H       6.818500000000000     -1.372400000000000     -1.026500000000000
H       6.886000000000000     -1.444500000000000      0.745500000000000
H       7.909100000000000     -0.296900000000000     -0.135600000000000
H      -5.341200000000000     -0.887500000000000     -0.927900000000000
H      -5.389500000000000     -0.833800000000000      0.858900000000000
H      -7.235400000000000      0.528300000000000     -0.126700000000000
H      -6.084200000000000      1.561900000000000      0.753500000000000
H      -6.036700000000000      1.509200000000000     -1.004000000000000
