31

O      -1.880600000000000     -0.404800000000000      0.720300000000000
O      -3.646200000000000     -0.515000000000000     -0.773200000000000
C       1.677400000000000     -1.131800000000000     -1.232500000000000
C       1.904500000000000      0.380000000000000     -1.363700000000000
C       1.358700000000000     -1.580700000000000      0.178300000000000
C       0.698700000000000      1.182900000000000     -0.960500000000000
C       0.571800000000000      2.025100000000000      0.082200000000000
C       0.117500000000000     -1.677300000000000      0.693600000000000
C       2.557300000000000     -1.898900000000000      1.035200000000000
C      -1.186200000000000     -1.419500000000000      0.007500000000000
C      -0.731300000000000      2.738200000000000      0.329000000000000
C       1.654900000000000      2.356900000000000      1.068700000000000
C      -3.096400000000000     -0.055000000000000      0.215200000000000
H       0.884300000000000     -1.445700000000000     -1.921900000000000
H       2.574200000000000     -1.658400000000000     -1.583700000000000
H       2.125800000000000      0.610100000000000     -2.413400000000000
H       2.800000000000000      0.665100000000000     -0.805000000000000
H      -0.161600000000000      1.050700000000000     -1.615600000000000
H       0.018700000000000     -2.000500000000000      1.729400000000000
H       3.211700000000000     -1.024900000000000      1.113700000000000
H       3.128200000000000     -2.723300000000000      0.595500000000000
H       2.278000000000000     -2.194900000000000      2.051900000000000
H      -1.777000000000000     -2.343000000000000      0.034100000000000
H      -1.069000000000000     -1.123700000000000     -1.037900000000000
H      -0.578200000000000      3.822300000000000      0.310200000000000
H      -1.488300000000000      2.500200000000000     -0.425300000000000
H      -1.135400000000000      2.462100000000000      1.308400000000000
H       1.310900000000000      2.143500000000000      2.086500000000000
H       2.576200000000000      1.791200000000000      0.919600000000000
H       1.906200000000000      3.420900000000000      1.007200000000000
H      -3.525400000000000      0.733600000000000      0.852300000000000
