31

O      -1.886700000000000      0.822800000000000      0.217000000000000
O      -3.401600000000000     -0.760000000000000     -0.531600000000000
C       0.562600000000000      0.801700000000000     -0.144000000000000
C       1.554200000000000     -0.369800000000000     -0.417500000000000
C       0.837500000000000     -1.270100000000000      0.624000000000000
C      -0.820900000000000      0.137800000000000     -0.417500000000000
C       0.694000000000000      1.010900000000000      1.391300000000000
C      -0.635800000000000     -1.282000000000000      0.149700000000000
C       0.871000000000000     -0.423900000000000      1.916300000000000
C       0.773700000000000      2.084200000000000     -0.926400000000000
C       3.031900000000000     -0.078500000000000     -0.086100000000000
C       1.541700000000000     -0.934100000000000     -1.852300000000000
C      -3.121700000000000      0.260900000000000      0.077000000000000
H       1.256800000000000     -2.270800000000000      0.752600000000000
H      -1.027600000000000      0.108100000000000     -1.494600000000000
H      -0.178400000000000      1.498600000000000      1.837700000000000
H       1.563300000000000      1.626300000000000      1.648800000000000
H      -0.776300000000000     -2.031600000000000     -0.636700000000000
H      -1.317800000000000     -1.530500000000000      0.969500000000000
H       1.825700000000000     -0.531400000000000      2.441900000000000
H       0.078000000000000     -0.699400000000000      2.619500000000000
H       1.763500000000000      2.510600000000000     -0.733600000000000
H       0.688600000000000      1.911500000000000     -2.004100000000000
H       0.028200000000000      2.837600000000000     -0.650300000000000
H       3.620300000000000     -1.002500000000000     -0.128600000000000
H       3.200400000000000      0.354800000000000      0.901900000000000
H       3.459700000000000      0.621700000000000     -0.812700000000000
H       2.145700000000000     -1.847500000000000     -1.906300000000000
H       1.970000000000000     -0.210700000000000     -2.555400000000000
H       0.552000000000000     -1.193900000000000     -2.233000000000000
H      -3.852500000000000      0.885100000000000      0.613500000000000
