31

O      -2.205400000000000      0.219200000000000      0.305800000000000
O      -0.836100000000000     -1.130900000000000     -0.969200000000000
C       1.461100000000000      0.282800000000000     -0.155800000000000
C       2.447500000000000      1.453100000000000     -0.042800000000000
C       1.980900000000000     -0.945100000000000      0.603800000000000
C       3.849100000000000      1.055000000000000     -0.499600000000000
C       3.383400000000000     -1.339200000000000      0.146100000000000
C       4.358800000000000     -0.171000000000000      0.251500000000000
C       0.080700000000000      0.689500000000000      0.356400000000000
C      -1.005500000000000     -0.196800000000000     -0.197700000000000
C      -3.347500000000000     -0.526200000000000     -0.128400000000000
C      -4.567900000000000      0.052000000000000      0.507600000000000
C      -5.599300000000000      0.557600000000000     -0.177600000000000
H       1.391800000000000      0.021400000000000     -1.221000000000000
H       2.099500000000000      2.297900000000000     -0.649200000000000
H       2.491700000000000      1.803900000000000      0.996300000000000
H       2.004300000000000     -0.735500000000000      1.681100000000000
H       1.309800000000000     -1.799900000000000      0.463900000000000
H       4.538200000000000      1.893300000000000     -0.346800000000000
H       3.836100000000000      0.844600000000000     -1.576100000000000
H       3.343100000000000     -1.689100000000000     -0.892800000000000
H       3.746500000000000     -2.177400000000000      0.751400000000000
H       5.335300000000000     -0.468400000000000     -0.147200000000000
H       4.509000000000000      0.084600000000000      1.307600000000000
H       0.044800000000000      0.659000000000000      1.451200000000000
H      -0.149100000000000      1.710600000000000      0.028400000000000
H      -3.411300000000000     -0.488500000000000     -1.222300000000000
H      -3.240400000000000     -1.570400000000000      0.187100000000000
H      -4.612500000000000      0.053500000000000      1.593500000000000
H      -6.459800000000000      0.962000000000000      0.344200000000000
H      -5.605400000000000      0.578300000000000     -1.261800000000000
