31

O      -4.201800000000000      0.560300000000000     -0.316700000000000
O      -2.314200000000000      1.504300000000000      0.623500000000000
C       3.476900000000000      0.425500000000000      0.369300000000000
C       2.526000000000000     -0.567000000000000     -0.308300000000000
C       4.188200000000000      1.351200000000000     -0.621100000000000
C       1.821100000000000     -1.503900000000000      0.679300000000000
C       5.152700000000000      2.322600000000000      0.041900000000000
C       0.905100000000000     -2.491500000000000      0.013300000000000
C      -0.380400000000000     -2.235400000000000     -0.272700000000000
C      -1.022900000000000     -0.975800000000000      0.031600000000000
C      -2.307700000000000     -0.730800000000000     -0.258500000000000
C      -2.901100000000000      0.581300000000000      0.081500000000000
C      -4.941800000000000      1.759200000000000     -0.063100000000000
H       2.912600000000000      1.032200000000000      1.088200000000000
H       4.227300000000000     -0.131300000000000      0.944000000000000
H       1.779000000000000     -0.004700000000000     -0.882300000000000
H       3.091500000000000     -1.165900000000000     -1.033800000000000
H       3.440900000000000      1.922500000000000     -1.184600000000000
H       4.741700000000000      0.746800000000000     -1.349600000000000
H       2.583100000000000     -2.080900000000000      1.220200000000000
H       1.308500000000000     -0.929400000000000      1.458700000000000
H       5.937500000000000      1.784700000000000      0.583000000000000
H       4.627700000000000      2.969800000000000      0.751500000000000
H       5.630500000000000      2.957600000000000     -0.710500000000000
H       1.322800000000000     -3.456300000000000     -0.261500000000000
H      -0.971900000000000     -3.004800000000000     -0.761600000000000
H      -0.438400000000000     -0.193300000000000      0.503100000000000
H      -2.938300000000000     -1.473800000000000     -0.736400000000000
H      -4.494700000000000      2.600900000000000     -0.600400000000000
H      -4.977900000000000      1.961600000000000      1.011600000000000
H      -5.962100000000000      1.612300000000000     -0.427100000000000
