32

O       0.235700000000000     -1.551200000000000      0.138400000000000
N      -0.321800000000000      0.354000000000000     -0.945400000000000
C       2.075700000000000     -0.383700000000000     -0.873700000000000
C       2.816900000000000      0.388600000000000      0.221400000000000
C      -1.444900000000000     -0.222200000000000     -0.409300000000000
C      -2.766700000000000      0.398600000000000     -0.574900000000000
C       0.598900000000000     -0.475400000000000     -0.582900000000000
C       4.307200000000000      0.508700000000000     -0.096600000000000
C      -1.111000000000000     -1.379200000000000      0.249500000000000
C      -3.112300000000000      1.392000000000000      0.554700000000000
C       5.041400000000000      1.309200000000000      0.967200000000000
C      -1.855300000000000     -2.399200000000000      0.995800000000000
C      -4.463700000000000      2.059800000000000      0.355900000000000
H       2.491400000000000     -1.393500000000000     -0.972300000000000
H       2.209600000000000      0.115700000000000     -1.840600000000000
H       2.683400000000000     -0.115700000000000      1.186900000000000
H       2.380200000000000      1.390100000000000      0.325900000000000
H      -2.799500000000000      0.925400000000000     -1.536900000000000
H      -3.541100000000000     -0.376900000000000     -0.623800000000000
H       4.753600000000000     -0.489800000000000     -0.169700000000000
H       4.442600000000000      0.997000000000000     -1.068800000000000
H      -3.108700000000000      0.868700000000000      1.518800000000000
H      -2.336500000000000      2.165600000000000      0.613800000000000
H       4.951500000000000      0.832300000000000      1.948500000000000
H       4.640100000000000      2.325100000000000      1.040600000000000
H       6.105300000000000      1.381100000000000      0.720700000000000
H      -1.281000000000000     -2.748700000000000      1.859600000000000
H      -2.806700000000000     -2.004300000000000      1.365100000000000
H      -2.068700000000000     -3.260300000000000      0.355300000000000
H      -4.486300000000000      2.624500000000000     -0.581500000000000
H      -5.266200000000000      1.316000000000000      0.328800000000000
H      -4.669300000000000      2.753600000000000      1.176900000000000
