32

O      -0.565800000000000     -0.972800000000000      0.046100000000000
N       2.813100000000000      0.217400000000000      0.101700000000000
C      -0.086800000000000      0.314000000000000     -0.401200000000000
C       0.583000000000000      1.052900000000000      0.774500000000000
C       0.943200000000000      0.096900000000000     -1.515900000000000
C      -1.337700000000000      1.027400000000000     -0.914800000000000
C       1.872600000000000      0.355300000000000      1.220700000000000
C       2.223200000000000     -0.563100000000000     -0.992900000000000
C      -1.896200000000000     -0.795500000000000      0.577600000000000
C      -2.375600000000000      0.509300000000000      0.021100000000000
C      -2.735700000000000     -1.992500000000000      0.162600000000000
C       4.060900000000000     -0.397200000000000      0.554500000000000
C      -3.498100000000000      1.147900000000000      0.366000000000000
H      -0.087400000000000      1.109500000000000      1.640100000000000
H       0.815400000000000      2.084400000000000      0.478800000000000
H       1.194400000000000      1.057500000000000     -1.984000000000000
H       0.522300000000000     -0.548100000000000     -2.297300000000000
H      -1.587900000000000      0.697200000000000     -1.930200000000000
H      -1.239200000000000      2.117000000000000     -0.910100000000000
H       2.328100000000000      0.961600000000000      2.013400000000000
H       1.635100000000000     -0.623200000000000      1.658200000000000
H       2.007800000000000     -1.590400000000000     -0.670700000000000
H       2.934500000000000     -0.628900000000000     -1.825400000000000
H      -1.813200000000000     -0.746000000000000      1.669200000000000
H      -2.283400000000000     -2.919500000000000      0.531700000000000
H      -3.755900000000000     -1.924700000000000      0.552900000000000
H      -2.784800000000000     -2.082300000000000     -0.928800000000000
H       3.905500000000000     -1.407700000000000      0.949600000000000
H       4.527800000000000      0.211300000000000      1.337000000000000
H       4.781800000000000     -0.455600000000000     -0.268500000000000
H      -4.186900000000000      0.719600000000000      1.086000000000000
H      -3.748600000000000      2.111100000000000     -0.065100000000000
