32

O      -1.777100000000000      1.040300000000000     -0.376900000000000
N      -1.915200000000000     -1.208800000000000     -0.182800000000000
C       2.641300000000000     -0.106800000000000     -0.634700000000000
C       1.234800000000000     -0.082400000000000     -0.033600000000000
C       3.712600000000000      0.008100000000000      0.450900000000000
C       0.163000000000000     -0.163900000000000     -1.124300000000000
C       5.116800000000000      0.017100000000000     -0.152600000000000
C      -1.225100000000000     -0.176300000000000     -0.535600000000000
C       6.183500000000000      0.164700000000000      0.920600000000000
C      -2.993800000000000      0.734800000000000      0.153800000000000
C      -3.073500000000000     -0.630700000000000      0.269700000000000
C      -3.887700000000000      1.855700000000000      0.464000000000000
C      -4.179700000000000     -1.451900000000000      0.781600000000000
H       2.785500000000000     -1.037000000000000     -1.197600000000000
H       2.749500000000000      0.721600000000000     -1.345400000000000
H       1.096800000000000      0.836600000000000      0.550200000000000
H       1.118300000000000     -0.920600000000000      0.665200000000000
H       3.617900000000000     -0.829700000000000      1.152300000000000
H       3.555100000000000      0.929400000000000      1.025000000000000
H       0.259100000000000      0.683100000000000     -1.814100000000000
H       0.298900000000000     -1.077500000000000     -1.715200000000000
H       5.289300000000000     -0.912400000000000     -0.707700000000000
H       5.210600000000000      0.843700000000000     -0.866700000000000
H       7.179600000000000      0.167300000000000      0.467100000000000
H       6.058600000000000      1.102200000000000      1.471700000000000
H       6.137800000000000     -0.663100000000000      1.635400000000000
H      -3.423800000000000      2.526300000000000      1.193900000000000
H      -4.109000000000000      2.432000000000000     -0.439500000000000
H      -4.836300000000000      1.505500000000000      0.882200000000000
H      -3.931000000000000     -2.517200000000000      0.744100000000000
H      -4.402700000000000     -1.194400000000000      1.821700000000000
H      -5.084400000000000     -1.295900000000000      0.185700000000000
