32

O      -2.044300000000000     -0.616500000000000     -1.389700000000000
N      -2.804200000000000     -0.135400000000000      0.750400000000000
C       2.812500000000000     -1.606900000000000     -0.102700000000000
C       1.538000000000000     -2.333200000000000      0.341800000000000
C       2.874300000000000     -0.185200000000000      0.380000000000000
C       0.290000000000000     -1.738500000000000     -0.251400000000000
C       3.027300000000000      0.871200000000000     -0.432000000000000
C       3.090900000000000      2.290300000000000      0.049000000000000
C      -0.695300000000000     -1.208900000000000      0.486700000000000
C      -4.049600000000000      0.472000000000000      0.344100000000000
C      -1.899200000000000     -0.633200000000000     -0.171600000000000
C       1.707400000000000      2.919500000000000      0.099300000000000
C      -3.847600000000000      1.904700000000000     -0.103900000000000
H       3.679400000000000     -2.141400000000000      0.304500000000000
H       2.902200000000000     -1.653400000000000     -1.195400000000000
H       1.599800000000000     -3.381200000000000      0.024100000000000
H       1.482200000000000     -2.344000000000000      1.437800000000000
H       2.808300000000000     -0.026600000000000      1.453700000000000
H       0.217100000000000     -1.761700000000000     -1.335800000000000
H       3.089800000000000      0.716900000000000     -1.506300000000000
H       3.741300000000000      2.866100000000000     -0.619000000000000
H       3.546800000000000      2.335300000000000      1.045300000000000
H      -0.630500000000000     -1.184200000000000      1.569400000000000
H      -4.486100000000000     -0.119100000000000     -0.468100000000000
H      -4.728700000000000      0.433900000000000      1.201500000000000
H      -2.601800000000000     -0.183900000000000      1.744800000000000
H       1.050500000000000      2.383400000000000      0.793000000000000
H       1.777400000000000      3.958600000000000      0.436500000000000
H       1.234600000000000      2.915900000000000     -0.888700000000000
H      -3.404300000000000      2.506300000000000      0.696800000000000
H      -3.180700000000000      1.962500000000000     -0.970300000000000
H      -4.805200000000000      2.356100000000000     -0.381100000000000
