32

O      -0.182900000000000     -0.811600000000000     -0.768000000000000
N      -0.321800000000000      1.261100000000000      0.126400000000000
C       1.837100000000000      0.483800000000000     -0.889800000000000
C       2.782100000000000      0.007400000000000      0.216900000000000
C       0.392900000000000      0.367600000000000     -0.471900000000000
C      -1.446100000000000     -0.641200000000000     -0.287900000000000
C      -1.526000000000000      0.617400000000000      0.254000000000000
C       4.245100000000000      0.160800000000000     -0.199000000000000
C      -2.377900000000000     -1.762800000000000     -0.446700000000000
C      -2.671100000000000      1.275100000000000      0.899100000000000
C       5.188700000000000     -0.273100000000000      0.911400000000000
C      -2.364700000000000     -2.743300000000000      0.733900000000000
C      -3.555400000000000      2.058800000000000     -0.078400000000000
H       2.000200000000000     -0.099300000000000     -1.803900000000000
H       2.045200000000000      1.532100000000000     -1.134800000000000
H       2.573300000000000     -1.042800000000000      0.457100000000000
H       2.596900000000000      0.583000000000000      1.132800000000000
H       4.441800000000000     -0.438900000000000     -1.095300000000000
H       4.451800000000000      1.206300000000000     -0.456000000000000
H      -3.397500000000000     -1.380000000000000     -0.573500000000000
H      -2.140200000000000     -2.314400000000000     -1.364200000000000
H      -3.288700000000000      0.531200000000000      1.416300000000000
H      -2.307700000000000      1.963400000000000      1.671800000000000
H       5.029200000000000     -1.324100000000000      1.173000000000000
H       5.039900000000000      0.331800000000000      1.811600000000000
H       6.229000000000000     -0.156500000000000      0.591900000000000
H      -1.368700000000000     -3.178100000000000      0.869100000000000
H      -3.075300000000000     -3.556800000000000      0.558400000000000
H      -2.642100000000000     -2.238200000000000      1.665200000000000
H      -2.980200000000000      2.840900000000000     -0.585100000000000
H      -4.383700000000000      2.532800000000000      0.457300000000000
H      -3.974500000000000      1.397700000000000     -0.844300000000000
