32

O      -1.029000000000000      0.157500000000000     -1.195200000000000
N       1.682200000000000     -0.322300000000000     -0.138600000000000
C      -0.300200000000000      0.198500000000000      1.022500000000000
C      -0.377700000000000     -1.264700000000000      0.526100000000000
C      -1.246400000000000      0.907900000000000      0.022900000000000
C      -1.347200000000000     -1.147300000000000     -0.659700000000000
C      -2.702800000000000      0.526800000000000      0.339300000000000
C      -2.769400000000000     -0.919300000000000     -0.152700000000000
C       1.189500000000000      0.540500000000000      0.934600000000000
C       1.054100000000000     -1.619500000000000      0.115700000000000
C      -1.042000000000000      2.393600000000000     -0.180300000000000
C       3.134800000000000     -0.403100000000000     -0.167400000000000
C       3.754100000000000      0.951400000000000     -0.467200000000000
H      -0.651700000000000      0.315900000000000      2.053800000000000
H      -0.743500000000000     -1.961700000000000      1.287400000000000
H      -1.259200000000000     -1.936400000000000     -1.410200000000000
H      -3.413700000000000      1.134900000000000     -0.232300000000000
H      -2.948200000000000      0.626600000000000      1.401200000000000
H      -3.068300000000000     -1.625700000000000      0.627100000000000
H      -3.487300000000000     -0.990900000000000     -0.977600000000000
H       1.360000000000000      1.602800000000000      0.745700000000000
H       1.669100000000000      0.289300000000000      1.890600000000000
H       1.546200000000000     -2.140400000000000      0.947600000000000
H       1.087100000000000     -2.270700000000000     -0.763800000000000
H      -0.068600000000000      2.607000000000000     -0.633100000000000
H      -1.784600000000000      2.795300000000000     -0.879100000000000
H      -1.126200000000000      2.940400000000000      0.763500000000000
H       3.542200000000000     -0.791000000000000      0.774800000000000
H       3.438800000000000     -1.097900000000000     -0.959800000000000
H       3.328900000000000      1.393800000000000     -1.374700000000000
H       3.623400000000000      1.657600000000000      0.358800000000000
H       4.831600000000000      0.838500000000000     -0.628100000000000
