32

O      -4.260800000000000      0.044700000000000     -0.110100000000000
N      -2.897200000000000      0.495900000000000      0.100200000000000
C      -0.591500000000000     -0.347700000000000      0.028900000000000
C       1.764700000000000     -1.276800000000000     -0.071000000000000
C       1.294800000000000      0.804800000000000      1.269500000000000
C       1.219000000000000      0.883500000000000     -1.248200000000000
C       0.267900000000000     -1.632400000000000     -0.037100000000000
C      -0.200800000000000      0.443800000000000      1.299600000000000
C      -0.276200000000000      0.522000000000000     -1.211100000000000
C       2.126000000000000     -0.486900000000000      1.197800000000000
C       2.050700000000000     -0.408500000000000     -1.307400000000000
C       1.583200000000000      1.662800000000000      0.026400000000000
C      -2.079700000000000     -0.705200000000000      0.062400000000000
H       2.361400000000000     -2.194600000000000     -0.117600000000000
H       1.558500000000000      1.363900000000000      2.174200000000000
H       1.429000000000000      1.498500000000000     -2.130400000000000
H       0.008700000000000     -2.217600000000000     -0.928800000000000
H       0.061100000000000     -2.272300000000000      0.830500000000000
H      -0.418600000000000     -0.148400000000000      2.197800000000000
H      -0.777600000000000      1.372600000000000      1.386200000000000
H      -0.859000000000000      1.451400000000000     -1.205700000000000
H      -0.547100000000000     -0.014300000000000     -2.129900000000000
H       1.941000000000000     -1.101500000000000      2.087400000000000
H       3.195700000000000     -0.244000000000000      1.195700000000000
H       3.119100000000000     -0.164100000000000     -1.354100000000000
H       1.811600000000000     -0.966700000000000     -2.220900000000000
H       2.643300000000000      1.943600000000000      0.003300000000000
H       1.007900000000000      2.595600000000000      0.072900000000000
H      -2.327000000000000     -1.290100000000000     -0.833200000000000
H      -2.304700000000000     -1.337500000000000      0.930400000000000
H      -2.956100000000000      0.854000000000000      1.052300000000000
H      -4.522300000000000      0.653900000000000     -0.821100000000000
