32

O       3.658100000000000     -0.061900000000000     -0.350800000000000
N       0.953700000000000      0.288500000000000      0.288400000000000
C      -0.388700000000000      0.185600000000000      0.412000000000000
C      -0.945600000000000     -1.218600000000000      0.468600000000000
C      -1.913600000000000     -1.550500000000000     -0.668500000000000
C      -3.316200000000000     -0.975600000000000     -0.477700000000000
C      -3.398100000000000      0.548500000000000     -0.529700000000000
C       1.872000000000000     -0.272200000000000      1.276500000000000
C       1.580000000000000      1.129900000000000     -0.728400000000000
C      -2.680600000000000      1.250300000000000      0.621500000000000
C      -1.187900000000000      1.265700000000000      0.489700000000000
C       3.023200000000000     -0.965200000000000      0.557800000000000
C       2.743700000000000      0.375400000000000     -1.359300000000000
H      -0.124800000000000     -1.945100000000000      0.404100000000000
H      -1.418000000000000     -1.392400000000000      1.443700000000000
H      -1.501000000000000     -1.225000000000000     -1.631600000000000
H      -2.008800000000000     -2.642400000000000     -0.724800000000000
H      -3.736200000000000     -1.335000000000000      0.469900000000000
H      -3.958900000000000     -1.377600000000000     -1.271000000000000
H      -4.458600000000000      0.827700000000000     -0.489600000000000
H      -3.018400000000000      0.909800000000000     -1.493700000000000
H       1.378100000000000     -0.977600000000000      1.954300000000000
H       2.261400000000000      0.550100000000000      1.889300000000000
H       1.944300000000000      2.047100000000000     -0.250100000000000
H       0.871000000000000      1.417100000000000     -1.514100000000000
H      -2.968600000000000      0.819000000000000      1.587600000000000
H      -3.019500000000000      2.294100000000000      0.644100000000000
H      -0.736100000000000      2.256200000000000      0.467900000000000
H       3.774000000000000     -1.294300000000000      1.282900000000000
H       2.678800000000000     -1.849600000000000      0.008300000000000
H       2.395100000000000     -0.492200000000000     -1.932500000000000
H       3.288600000000000      1.031500000000000     -2.045300000000000
