32

O      -1.519500000000000     -2.787700000000000      0.061800000000000
N       1.569100000000000      0.783200000000000     -0.148000000000000
C      -2.195800000000000      0.797400000000000      0.047300000000000
C      -0.805900000000000      1.257500000000000     -0.446800000000000
C      -2.460200000000000     -0.638800000000000     -0.432400000000000
C       0.304000000000000      0.262600000000000     -0.190300000000000
C      -2.279400000000000      0.874100000000000      1.586500000000000
C      -3.272400000000000      1.731400000000000     -0.534600000000000
C      -1.327300000000000     -1.582500000000000     -0.093100000000000
C       0.052300000000000     -1.044500000000000     -0.012400000000000
C       2.707100000000000     -0.109500000000000      0.015300000000000
C       4.010400000000000      0.685100000000000     -0.000500000000000
C       5.217700000000000     -0.228200000000000      0.147200000000000
H      -0.561100000000000      2.216300000000000      0.030400000000000
H      -0.835400000000000      1.449200000000000     -1.528200000000000
H      -2.589300000000000     -0.669900000000000     -1.521400000000000
H      -3.378700000000000     -1.026300000000000      0.024900000000000
H      -2.109900000000000      1.898600000000000      1.937400000000000
H      -3.268900000000000      0.563600000000000      1.941200000000000
H      -1.539900000000000      0.233500000000000      2.077400000000000
H      -3.110100000000000      2.767700000000000     -0.217700000000000
H      -3.264300000000000      1.713700000000000     -1.630300000000000
H      -4.274300000000000      1.433200000000000     -0.205700000000000
H       0.817900000000000     -1.786400000000000      0.183200000000000
H       1.702100000000000      1.774500000000000     -0.313000000000000
H       2.637500000000000     -0.643600000000000      0.971200000000000
H       2.733800000000000     -0.844200000000000     -0.799300000000000
H       4.094200000000000      1.247800000000000     -0.938200000000000
H       4.008900000000000      1.421900000000000      0.811900000000000
H       5.179300000000000     -0.779700000000000      1.092100000000000
H       5.264800000000000     -0.952400000000000     -0.672300000000000
H       6.140800000000000      0.359600000000000      0.134300000000000
