33

N       1.264000000000000     -0.880100000000000      0.189100000000000
N       3.428800000000000     -1.776100000000000      0.289800000000000
C      -0.964600000000000      0.073700000000000      0.284400000000000
C       0.466800000000000      0.290300000000000     -0.206400000000000
C      -1.844200000000000      1.255100000000000     -0.141000000000000
C      -1.510000000000000     -1.247100000000000     -0.271000000000000
C      -3.304300000000000      1.038200000000000      0.248400000000000
C      -2.970400000000000     -1.460900000000000      0.118500000000000
C      -3.842600000000000     -0.280500000000000     -0.299100000000000
C       1.068700000000000      1.556000000000000      0.406100000000000
C       2.541900000000000      1.723200000000000      0.031300000000000
C       3.123700000000000      0.483500000000000     -0.635000000000000
C       2.542200000000000     -0.775200000000000     -0.014900000000000
H      -0.969900000000000      0.007300000000000      1.381500000000000
H       0.461700000000000      0.369100000000000     -1.302600000000000
H      -1.778700000000000      1.406700000000000     -1.226000000000000
H      -1.520500000000000      2.185100000000000      0.336300000000000
H      -0.930700000000000     -2.099900000000000      0.101300000000000
H      -1.426600000000000     -1.258300000000000     -1.365600000000000
H      -3.913600000000000      1.868400000000000     -0.126300000000000
H      -3.395300000000000      1.043000000000000      1.341800000000000
H      -3.041800000000000     -1.601300000000000      1.204100000000000
H      -3.345900000000000     -2.378900000000000     -0.347500000000000
H       0.987900000000000      1.516800000000000      1.500300000000000
H       0.539800000000000      2.458000000000000      0.083300000000000
H      -4.867800000000000     -0.435900000000000      0.055100000000000
H      -3.886900000000000     -0.229400000000000     -1.394000000000000
H       3.112100000000000      1.954900000000000      0.939400000000000
H       2.668000000000000      2.584000000000000     -0.636000000000000
H       4.215800000000000      0.489900000000000     -0.556400000000000
H       2.874800000000000      0.472700000000000     -1.703100000000000
H       4.424100000000000     -1.685600000000000      0.116300000000000
H       3.109600000000000     -2.647300000000000      0.699700000000000
