33

N      -1.213600000000000      0.377700000000000     -0.237700000000000
N      -3.886500000000000     -0.575100000000000      0.351900000000000
C       1.199400000000000      0.367900000000000      0.259800000000000
C      -0.044600000000000      1.218500000000000      0.012300000000000
C       1.463400000000000     -0.581100000000000     -0.916300000000000
C       2.426800000000000      1.259800000000000      0.518300000000000
C      -1.470100000000000     -0.512100000000000      0.902200000000000
C      -2.395500000000000      1.199600000000000     -0.527800000000000
C       2.683800000000000     -1.468500000000000     -0.652400000000000
C      -2.700800000000000     -1.384400000000000      0.642500000000000
C      -3.620800000000000      0.317300000000000     -0.778800000000000
C       3.723200000000000      0.506500000000000      0.469700000000000
C       3.835400000000000     -0.726000000000000     -0.044000000000000
H       1.082200000000000     -0.227700000000000      1.173500000000000
H       0.130300000000000      1.862700000000000     -0.859200000000000
H      -0.214500000000000      1.882100000000000      0.870700000000000
H       1.635200000000000      0.005200000000000     -1.829300000000000
H       0.608000000000000     -1.234200000000000     -1.120400000000000
H       2.325200000000000      1.731700000000000      1.503200000000000
H       2.477100000000000      2.070300000000000     -0.219300000000000
H      -1.611200000000000      0.062900000000000      1.827300000000000
H      -0.651300000000000     -1.217400000000000      1.069100000000000
H      -2.216300000000000      1.805200000000000     -1.424300000000000
H      -2.603400000000000      1.891600000000000      0.299500000000000
H       3.003400000000000     -1.924500000000000     -1.596300000000000
H       2.406000000000000     -2.287300000000000      0.022200000000000
H      -2.508400000000000     -2.076500000000000     -0.187300000000000
H      -2.902200000000000     -1.996400000000000      1.528800000000000
H      -4.497000000000000      0.955600000000000     -0.937200000000000
H      -3.483700000000000     -0.271000000000000     -1.695100000000000
H      -4.670000000000000     -1.187000000000000      0.126400000000000
H       4.604400000000000      0.994800000000000      0.875200000000000
H       4.801800000000000     -1.221400000000000     -0.028900000000000
