33

N       0.974200000000000      0.234300000000000     -0.037200000000000
N      -4.031000000000000      0.918500000000000      0.479000000000000
C       0.206000000000000     -0.098000000000000      1.176800000000000
C       0.452600000000000     -0.727100000000000     -1.025900000000000
C       2.444300000000000      0.156200000000000      0.149800000000000
C       0.192900000000000     -1.629400000000000      1.207900000000000
C       0.356900000000000     -2.047200000000000     -0.254900000000000
C       3.361100000000000      0.816800000000000     -0.837300000000000
C       3.216900000000000      1.380100000000000      0.546200000000000
C      -1.204800000000000      0.492000000000000      0.977500000000000
C      -0.932500000000000     -0.204000000000000     -1.457600000000000
C      -1.911600000000000     -0.069000000000000     -0.273500000000000
C      -3.125100000000000      0.776800000000000     -0.650800000000000
H       0.647600000000000      0.326700000000000      2.085300000000000
H       1.092300000000000     -0.816200000000000     -1.911000000000000
H       2.804000000000000     -0.783200000000000      0.562100000000000
H       1.038200000000000     -2.011300000000000      1.792700000000000
H      -0.722600000000000     -2.036800000000000      1.649100000000000
H      -0.469700000000000     -2.679000000000000     -0.595400000000000
H       1.282000000000000     -2.625400000000000     -0.365700000000000
H      -1.121400000000000      1.584800000000000      0.901500000000000
H      -1.805000000000000      0.282300000000000      1.871600000000000
H      -1.364100000000000     -0.876800000000000     -2.209100000000000
H      -0.804700000000000      0.770600000000000     -1.948000000000000
H       2.927900000000000      1.379000000000000     -1.655700000000000
H       4.287100000000000      0.311400000000000     -1.082800000000000
H       4.045700000000000      1.253300000000000      1.231900000000000
H       2.685400000000000      2.317600000000000      0.654700000000000
H      -2.273700000000000     -1.077200000000000     -0.027500000000000
H      -2.809300000000000      1.774700000000000     -0.975600000000000
H      -3.658200000000000      0.314400000000000     -1.489200000000000
H      -4.857700000000000      1.438400000000000      0.187800000000000
H      -4.360000000000000      0.000100000000000      0.774000000000000
