33

N       2.872300000000000      0.896100000000000      0.696400000000000
N       3.043000000000000     -0.765600000000000     -0.849000000000000
C      -1.523800000000000     -0.342800000000000     -0.267800000000000
C      -2.420300000000000     -1.284900000000000      0.547200000000000
C      -1.977800000000000      1.114700000000000     -0.111100000000000
C      -0.061200000000000     -0.499400000000000      0.144200000000000
C      -3.894600000000000     -1.108600000000000      0.190700000000000
C      -3.452900000000000      1.287100000000000     -0.466300000000000
C      -4.339800000000000      0.342900000000000      0.339200000000000
C       0.874600000000000      0.366600000000000     -0.687500000000000
C       2.297400000000000      0.153300000000000     -0.289600000000000
C       4.221600000000000      0.468300000000000      0.910500000000000
C       4.361600000000000     -0.627600000000000     -0.156800000000000
H      -1.616500000000000     -0.619700000000000     -1.327100000000000
H      -2.128300000000000     -2.326700000000000      0.369200000000000
H      -2.284200000000000     -1.095500000000000      1.619700000000000
H      -1.810000000000000      1.453300000000000      0.919100000000000
H      -1.407800000000000      1.779900000000000     -0.767200000000000
H       0.235100000000000     -1.551700000000000      0.042100000000000
H       0.060200000000000     -0.253700000000000      1.207500000000000
H      -4.061900000000000     -1.438100000000000     -0.842200000000000
H      -4.508100000000000     -1.749800000000000      0.833500000000000
H      -3.757600000000000      2.323700000000000     -0.283400000000000
H      -3.595300000000000      1.096500000000000     -1.537300000000000
H      -5.380600000000000      0.444900000000000      0.011700000000000
H      -4.308400000000000      0.627500000000000      1.398200000000000
H       0.662400000000000      1.432100000000000     -0.557200000000000
H       0.768500000000000      0.130600000000000     -1.752500000000000
H       2.421000000000000      1.624400000000000      1.235900000000000
H       4.355100000000000      0.064000000000000      1.918200000000000
H       4.934300000000000      1.282000000000000      0.748400000000000
H       5.129600000000000     -0.362500000000000     -0.891400000000000
H       4.638300000000000     -1.584500000000000      0.298200000000000
