33

N       0.826300000000000     -0.373000000000000     -0.003500000000000
N      -2.369200000000000      2.414000000000000      0.000100000000000
C       1.896300000000000      0.651400000000000     -0.004200000000000
C      -0.015200000000000     -0.368300000000000     -1.208300000000000
C      -0.008600000000000     -0.373400000000000      1.205900000000000
C       3.174500000000000      0.401900000000000     -0.749800000000000
C       3.169600000000000      0.405200000000000      0.750800000000000
C      -0.948100000000000      0.858400000000000     -1.266300000000000
C      -0.942800000000000      0.851800000000000      1.273800000000000
C      -0.754700000000000     -1.718300000000000     -1.275400000000000
C      -0.746200000000000     -1.724400000000000      1.271500000000000
C      -1.775200000000000      1.074300000000000      0.005700000000000
C      -1.506800000000000     -2.099600000000000     -0.000300000000000
H       1.543300000000000      1.679000000000000     -0.006700000000000
H       0.629800000000000     -0.329700000000000     -2.096500000000000
H       0.640700000000000     -0.337700000000000      2.091000000000000
H       3.309300000000000     -0.549900000000000     -1.249200000000000
H       3.635800000000000      1.241500000000000     -1.255200000000000
H       3.627600000000000      1.247100000000000      1.255400000000000
H       3.301700000000000     -0.544300000000000      1.255100000000000
H      -0.332500000000000      1.749100000000000     -1.453900000000000
H      -1.618000000000000      0.772100000000000     -2.131700000000000
H      -1.609600000000000      0.761400000000000      2.141000000000000
H      -0.327700000000000      1.742600000000000      1.462600000000000
H      -0.011900000000000     -2.503700000000000     -1.473300000000000
H      -1.445000000000000     -1.732500000000000     -2.127200000000000
H      -1.430800000000000     -1.743400000000000      2.127900000000000
H      -0.001500000000000     -2.510200000000000      1.460500000000000
H      -2.616400000000000      0.378200000000000      0.006200000000000
H      -1.700700000000000     -3.179400000000000     -0.002300000000000
H      -2.497700000000000     -1.638500000000000      0.004200000000000
H      -2.971200000000000      2.518600000000000     -0.815600000000000
H      -2.966800000000000      2.526800000000000      0.817900000000000
