33

N      -0.044400000000000     -0.225200000000000      0.544400000000000
N       3.629500000000000      0.177500000000000      0.091200000000000
C      -2.837400000000000      0.085400000000000     -0.229000000000000
C       1.371300000000000     -0.349100000000000      0.875000000000000
C      -2.071400000000000      1.081100000000000      0.638600000000000
C      -1.964800000000000     -1.103300000000000     -0.624100000000000
C       2.211900000000000      0.267800000000000     -0.235600000000000
C      -3.309900000000000      0.799500000000000     -1.504200000000000
C      -4.052600000000000     -0.429100000000000      0.556900000000000
C      -0.783800000000000      0.875200000000000      0.961400000000000
C      -0.683100000000000     -1.186200000000000     -0.230300000000000
C       4.396500000000000      1.173800000000000     -0.659100000000000
C       4.138200000000000     -1.167400000000000     -0.185100000000000
H       1.583300000000000      0.146700000000000      1.831900000000000
H       1.614300000000000     -1.407400000000000      1.026600000000000
H      -2.581700000000000      1.971000000000000      0.995800000000000
H      -2.393100000000000     -1.891400000000000     -1.236700000000000
H       1.988800000000000     -0.187600000000000     -1.209800000000000
H       1.916700000000000      1.322700000000000     -0.322000000000000
H      -3.881700000000000      0.123900000000000     -2.151700000000000
H      -3.956700000000000      1.653000000000000     -1.267600000000000
H      -2.463700000000000      1.179500000000000     -2.089800000000000
H      -4.718300000000000      0.393000000000000      0.846100000000000
H      -4.643100000000000     -1.135900000000000     -0.038300000000000
H      -3.748100000000000     -0.945400000000000      1.475600000000000
H      -0.235300000000000      1.585400000000000      1.569900000000000
H      -0.058600000000000     -2.025100000000000     -0.516700000000000
H       4.064700000000000      2.187300000000000     -0.407100000000000
H       4.301700000000000      1.037200000000000     -1.742500000000000
H       5.458800000000000      1.120500000000000     -0.395800000000000
H       3.643900000000000     -1.923900000000000      0.431700000000000
H       5.204300000000000     -1.227800000000000      0.062800000000000
H       4.020200000000000     -1.447600000000000     -1.238400000000000
