33

N       0.582200000000000     -1.497500000000000      0.378200000000000
N       2.380300000000000     -2.156900000000000     -0.942900000000000
C      -0.013700000000000      0.941700000000000      0.562800000000000
C      -0.195600000000000     -0.486600000000000      1.104900000000000
C       1.507600000000000      1.202500000000000      0.518100000000000
C      -0.732200000000000      1.223000000000000     -0.774100000000000
C      -1.649400000000000     -0.976200000000000      1.207200000000000
C      -2.249900000000000      1.317400000000000     -0.622500000000000
C       2.174500000000000      0.219100000000000     -0.432000000000000
C      -2.339700000000000     -1.228300000000000     -0.131800000000000
C      -2.996800000000000     -0.003600000000000     -0.756200000000000
C       1.882600000000000      2.643100000000000      0.171500000000000
C       1.650300000000000     -1.197900000000000     -0.283200000000000
H      -0.434100000000000      1.631000000000000      1.309100000000000
H       0.187500000000000     -0.490400000000000      2.135700000000000
H       1.901900000000000      1.014300000000000      1.527500000000000
H      -0.465600000000000      0.488700000000000     -1.542500000000000
H      -0.401800000000000      2.196200000000000     -1.153100000000000
H      -2.240500000000000     -0.286100000000000      1.821200000000000
H      -1.636100000000000     -1.931100000000000      1.750700000000000
H      -2.638800000000000      1.994100000000000     -1.394700000000000
H      -2.504000000000000      1.789300000000000      0.334600000000000
H       3.258400000000000      0.213400000000000     -0.264000000000000
H       2.015800000000000      0.514800000000000     -1.476800000000000
H      -3.123700000000000     -1.982300000000000      0.016100000000000
H      -1.641600000000000     -1.673000000000000     -0.850100000000000
H      -3.996300000000000      0.127300000000000     -0.321800000000000
H      -3.163800000000000     -0.214500000000000     -1.820300000000000
H       1.660600000000000      2.891000000000000     -0.870700000000000
H       2.956600000000000      2.800900000000000      0.320000000000000
H       1.349800000000000      3.350100000000000      0.815700000000000
H       3.210800000000000     -1.926100000000000     -1.478100000000000
H       2.103300000000000     -3.132300000000000     -0.916400000000000
