33

N       3.109100000000000      0.271000000000000      0.155400000000000
N       4.935300000000000     -0.959700000000000      0.289900000000000
C      -1.895500000000000     -0.137500000000000     -0.157000000000000
C      -0.724500000000000      0.701400000000000      0.361000000000000
C      -3.266200000000000      0.458900000000000      0.175700000000000
C       0.617700000000000      0.046800000000000      0.018600000000000
C      -4.437300000000000     -0.415500000000000     -0.277800000000000
C       1.821400000000000      0.847400000000000      0.522600000000000
C      -5.776400000000000      0.192000000000000      0.142700000000000
C      -6.943000000000000     -0.690200000000000     -0.272000000000000
C       3.808300000000000      0.545900000000000     -0.975100000000000
C       3.811500000000000     -0.631700000000000      0.887600000000000
C       4.939600000000000     -0.228700000000000     -0.871700000000000
H      -1.809600000000000     -0.251200000000000     -1.244700000000000
H      -1.831900000000000     -1.145200000000000      0.272300000000000
H      -0.768100000000000      1.705000000000000     -0.078600000000000
H      -0.807800000000000      0.818800000000000      1.448000000000000
H      -3.350000000000000      1.449300000000000     -0.288500000000000
H      -3.331400000000000      0.611800000000000      1.260400000000000
H       0.693900000000000     -0.075100000000000     -1.069600000000000
H       0.652500000000000     -0.963800000000000      0.445200000000000
H      -4.407500000000000     -0.532900000000000     -1.367700000000000
H      -4.335700000000000     -1.416500000000000      0.158600000000000
H       1.802000000000000      0.925800000000000      1.616000000000000
H       1.801300000000000      1.867400000000000      0.120400000000000
H      -5.799700000000000      0.327500000000000      1.230300000000000
H      -5.893800000000000      1.183100000000000     -0.310600000000000
H      -7.889900000000000     -0.236500000000000      0.036800000000000
H      -6.872400000000000     -1.678600000000000      0.193100000000000
H      -6.967800000000000     -0.822300000000000     -1.358400000000000
H       3.463700000000000      1.237500000000000     -1.731300000000000
H       3.467600000000000     -1.017400000000000      1.837800000000000
H       5.756500000000000     -0.297900000000000     -1.575100000000000
