33

N      -0.822000000000000     -0.778200000000000     -0.523800000000000
N      -5.382100000000000      0.505900000000000      0.466100000000000
C       0.328200000000000     -0.808600000000000      0.385600000000000
C       0.594600000000000      0.575900000000000      0.993500000000000
C       1.503800000000000     -1.490100000000000     -0.330500000000000
C       0.985400000000000      1.709100000000000      0.045500000000000
C       2.834800000000000     -1.437300000000000      0.423600000000000
C       2.288200000000000      1.555500000000000     -0.738600000000000
C       3.831800000000000     -0.412100000000000     -0.121500000000000
C       3.483200000000000      1.064400000000000      0.079500000000000
C      -2.018900000000000     -0.350500000000000      0.180300000000000
C      -3.205700000000000     -0.289100000000000     -0.777900000000000
C      -4.421200000000000      0.155000000000000     -0.081700000000000
H       0.074800000000000     -1.469500000000000      1.227800000000000
H       1.382500000000000      0.472100000000000      1.749000000000000
H      -0.252300000000000      0.912300000000000      1.601700000000000
H       1.623700000000000     -1.118800000000000     -1.354100000000000
H       1.236400000000000     -2.550300000000000     -0.451100000000000
H       1.070400000000000      2.621400000000000      0.651600000000000
H       0.168900000000000      1.901600000000000     -0.660800000000000
H       3.310900000000000     -2.421100000000000      0.312500000000000
H       2.689100000000000     -1.305200000000000      1.501000000000000
H       2.535100000000000      2.551000000000000     -1.132400000000000
H       2.134000000000000      0.936400000000000     -1.627400000000000
H       4.006000000000000     -0.603600000000000     -1.187900000000000
H       4.794000000000000     -0.593100000000000      0.375400000000000
H       4.360600000000000      1.636900000000000     -0.250800000000000
H       3.368900000000000      1.295200000000000      1.144100000000000
H      -0.972400000000000     -1.704800000000000     -0.922200000000000
H      -2.247200000000000     -1.033000000000000      1.009000000000000
H      -1.920500000000000      0.657100000000000      0.593800000000000
H      -2.988600000000000      0.399700000000000     -1.603400000000000
H      -3.383500000000000     -1.276300000000000     -1.221400000000000
