33

N       0.588700000000000     -1.376800000000000      0.000000000000000
N      -0.753800000000000     -1.437800000000000     -0.000400000000000
C       2.527600000000000      0.174800000000000      0.000200000000000
C      -2.544500000000000      0.205800000000000      0.000100000000000
C       1.082700000000000     -0.105400000000000     -0.000100000000000
C      -1.052900000000000     -0.167900000000000     -0.001100000000000
C      -0.012900000000000      0.722900000000000     -0.001200000000000
C       2.963300000000000      1.001000000000000      1.258900000000000
C       2.963900000000000      1.001200000000000     -1.258200000000000
C       3.475100000000000     -1.081100000000000      0.000200000000000
C      -2.872500000000000      1.038100000000000     -1.258300000000000
C      -2.870600000000000      1.038500000000000      1.258900000000000
C      -3.494300000000000     -1.013500000000000      0.001100000000000
H      -0.014100000000000      1.803000000000000     -0.001400000000000
H       2.731500000000000      0.454200000000000      2.180300000000000
H       2.432900000000000      1.959400000000000      1.301300000000000
H       4.038000000000000      1.214700000000000      1.249900000000000
H       2.732500000000000      0.454500000000000     -2.179800000000000
H       4.038600000000000      1.214900000000000     -1.248800000000000
H       2.433600000000000      1.959700000000000     -1.300700000000000
H       3.299500000000000     -1.702400000000000     -0.885700000000000
H       3.299200000000000     -1.702600000000000      0.885900000000000
H       4.531800000000000     -0.789800000000000      0.000400000000000
H      -3.933700000000000      1.310600000000000     -1.290000000000000
H      -2.295600000000000      1.969600000000000     -1.289100000000000
H      -2.641900000000000      0.478900000000000     -2.172800000000000
H      -2.293800000000000      1.970100000000000      1.288400000000000
H      -3.931800000000000      1.310700000000000      1.292200000000000
H      -2.638300000000000      0.479400000000000      2.173100000000000
H      -4.545000000000000     -0.700600000000000      0.001900000000000
H      -3.339600000000000     -1.641900000000000     -0.883900000000000
H      -3.338300000000000     -1.641500000000000      0.886300000000000
H       1.099600000000000     -2.250800000000000      0.000400000000000
