34

O       1.726300000000000     -0.314000000000000      0.279900000000000
O       1.986000000000000     -2.148300000000000     -1.100100000000000
C       1.005200000000000      1.931500000000000     -0.298600000000000
C      -1.248100000000000      0.067700000000000      0.234000000000000
C       1.075100000000000      0.455900000000000     -0.729200000000000
C      -0.324000000000000     -0.116000000000000     -0.980600000000000
C       0.084500000000000      2.112900000000000      0.917800000000000
C      -1.308600000000000      1.539300000000000      0.660000000000000
C       2.393600000000000      2.499300000000000      0.002300000000000
C      -2.623800000000000     -0.449100000000000     -0.056600000000000
C      -3.103900000000000     -1.575700000000000      0.809400000000000
C      -3.382900000000000      0.066500000000000     -1.034800000000000
C       1.866400000000000     -1.644700000000000      0.008600000000000
C       1.854100000000000     -2.425200000000000      1.288000000000000
H       0.583000000000000      2.508100000000000     -1.132800000000000
H      -0.826200000000000     -0.502500000000000      1.072400000000000
H       1.668800000000000      0.390200000000000     -1.650600000000000
H      -0.294300000000000     -1.176800000000000     -1.251800000000000
H      -0.737800000000000      0.404800000000000     -1.854400000000000
H      -0.005600000000000      3.178400000000000      1.161300000000000
H       0.519600000000000      1.624400000000000      1.798900000000000
H      -1.911600000000000      1.643100000000000      1.571000000000000
H      -1.793400000000000      2.155300000000000     -0.108100000000000
H       2.331300000000000      3.569000000000000      0.228600000000000
H       2.858300000000000      2.002700000000000      0.860500000000000
H       3.056600000000000      2.378600000000000     -0.860800000000000
H      -2.437800000000000     -2.439400000000000      0.713000000000000
H      -3.124300000000000     -1.266100000000000      1.859500000000000
H      -4.113500000000000     -1.902300000000000      0.539100000000000
H      -4.377800000000000     -0.319500000000000     -1.232200000000000
H      -3.042800000000000      0.880900000000000     -1.664800000000000
H       0.890700000000000     -2.302300000000000      1.788700000000000
H       2.669600000000000     -2.091000000000000      1.934200000000000
H       1.999500000000000     -3.486300000000000      1.066400000000000
