34

O      -1.659100000000000      0.573600000000000     -0.174100000000000
O      -2.955000000000000     -1.333600000000000     -0.315200000000000
C       0.800400000000000      0.687200000000000     -0.435200000000000
C       1.910400000000000     -0.386300000000000     -0.221100000000000
C       1.211900000000000     -0.907600000000000      1.063200000000000
C      -0.495900000000000     -0.177400000000000     -0.475500000000000
C       0.811100000000000      1.464900000000000      0.911400000000000
C      -0.219900000000000     -1.255500000000000      0.589100000000000
C       1.083200000000000      0.356500000000000      1.942400000000000
C       0.944700000000000      1.602000000000000     -1.636800000000000
C       2.038100000000000     -1.440300000000000     -1.339800000000000
C       3.332700000000000      0.160700000000000      0.013100000000000
C      -2.832200000000000     -0.131300000000000     -0.124300000000000
C      -3.970400000000000      0.787100000000000      0.203100000000000
H       1.711100000000000     -1.736800000000000      1.570000000000000
H      -0.628600000000000     -0.627000000000000     -1.467400000000000
H      -0.129300000000000      1.985700000000000      1.118000000000000
H       1.602700000000000      2.222100000000000      0.941300000000000
H      -0.239800000000000     -2.254300000000000      0.139600000000000
H      -0.928700000000000     -1.253800000000000      1.423700000000000
H       2.007400000000000      0.556800000000000      2.494600000000000
H       0.274200000000000      0.277300000000000      2.676100000000000
H       1.877100000000000      2.174000000000000     -1.592600000000000
H       0.945700000000000      1.033300000000000     -2.572300000000000
H       0.117600000000000      2.318400000000000     -1.683900000000000
H       2.724500000000000     -2.238000000000000     -1.032600000000000
H       1.102400000000000     -1.927900000000000     -1.619500000000000
H       2.442700000000000     -0.987500000000000     -2.252200000000000
H       3.398300000000000      0.945400000000000      0.769500000000000
H       4.002000000000000     -0.645000000000000      0.336400000000000
H       3.741700000000000      0.582000000000000     -0.912300000000000
H      -4.064200000000000      1.551200000000000     -0.572700000000000
H      -3.804100000000000      1.248000000000000      1.179900000000000
H      -4.900500000000000      0.212900000000000      0.242000000000000
