34

O       2.142000000000000      0.216900000000000     -0.323900000000000
O       4.343600000000000      0.012300000000000      0.345400000000000
C      -1.852200000000000     -2.103600000000000     -0.446600000000000
C      -2.933400000000000     -1.072100000000000     -0.098000000000000
C      -0.470400000000000     -1.729700000000000      0.047400000000000
C      -2.642700000000000      0.286700000000000     -0.672600000000000
C       0.603200000000000     -1.534800000000000     -0.743000000000000
C      -0.335400000000000     -1.612300000000000      1.544200000000000
C      -2.572700000000000      1.465300000000000     -0.025300000000000
C       2.000500000000000     -1.197400000000000     -0.330300000000000
C      -2.275400000000000      2.732000000000000     -0.782800000000000
C      -2.755800000000000      1.657200000000000      1.453200000000000
C       3.373700000000000      0.690700000000000      0.035500000000000
C       3.375100000000000      2.188900000000000     -0.003100000000000
H      -2.131100000000000     -3.074000000000000     -0.017300000000000
H      -1.832500000000000     -2.249100000000000     -1.534800000000000
H      -3.089200000000000     -1.051600000000000      0.983100000000000
H      -3.883100000000000     -1.417000000000000     -0.526400000000000
H      -2.495400000000000      0.290700000000000     -1.752300000000000
H       0.456700000000000     -1.622300000000000     -1.818700000000000
H      -0.635300000000000     -2.553400000000000      2.018000000000000
H      -0.981200000000000     -0.817600000000000      1.928200000000000
H       0.670100000000000     -1.381600000000000      1.899300000000000
H       2.689900000000000     -1.625500000000000     -1.068700000000000
H       2.270500000000000     -1.619400000000000      0.642200000000000
H      -1.358400000000000      3.194100000000000     -0.402300000000000
H      -2.137200000000000      2.555800000000000     -1.854800000000000
H      -3.098300000000000      3.444900000000000     -0.667300000000000
H      -3.548400000000000      2.389800000000000      1.640000000000000
H      -3.031700000000000      0.747100000000000      1.988000000000000
H      -1.829200000000000      2.033600000000000      1.899300000000000
H       2.632600000000000      2.578000000000000      0.698100000000000
H       3.163600000000000      2.533300000000000     -1.018400000000000
H       4.361000000000000      2.558700000000000      0.292700000000000
