34

O       1.508100000000000     -0.240600000000000      0.312800000000000
O       2.596900000000000      1.126300000000000     -1.198200000000000
C      -0.809200000000000     -0.922800000000000      0.359900000000000
C      -1.548900000000000      1.890700000000000     -0.260000000000000
C       0.217900000000000      0.066300000000000     -0.215400000000000
C      -0.123900000000000      1.512400000000000      0.154100000000000
C      -2.238000000000000     -0.533500000000000     -0.038000000000000
C      -2.561900000000000      0.909900000000000      0.341400000000000
C      -0.525900000000000     -2.327300000000000     -0.087300000000000
C      -1.870800000000000      3.323700000000000      0.159700000000000
C      -0.209300000000000     -3.311800000000000      1.005700000000000
C      -0.533200000000000     -2.716600000000000     -1.373100000000000
C       2.525800000000000      0.562100000000000     -0.114800000000000
C       3.572400000000000      0.661200000000000      0.953200000000000
H      -0.737100000000000     -0.883800000000000      1.456300000000000
H      -1.618900000000000      1.836000000000000     -1.354600000000000
H       0.254700000000000     -0.021300000000000     -1.309700000000000
H       0.570700000000000      2.218900000000000     -0.313600000000000
H       0.004100000000000      1.650700000000000      1.236800000000000
H      -2.959500000000000     -1.201100000000000      0.450000000000000
H      -2.391300000000000     -0.643800000000000     -1.119100000000000
H      -3.572500000000000      1.156200000000000     -0.005700000000000
H      -2.570800000000000      1.002900000000000      1.435100000000000
H      -1.167300000000000      4.029200000000000     -0.294800000000000
H      -2.879800000000000      3.604300000000000     -0.160400000000000
H      -1.815100000000000      3.442900000000000      1.247000000000000
H       0.676000000000000     -2.988500000000000      1.563100000000000
H      -1.051400000000000     -3.388800000000000      1.701400000000000
H      -0.008100000000000     -4.315100000000000      0.615500000000000
H      -0.317700000000000     -3.742600000000000     -1.652700000000000
H      -0.751900000000000     -2.024900000000000     -2.179200000000000
H       3.977300000000000     -0.330800000000000      1.168700000000000
H       3.141100000000000      1.105500000000000      1.853800000000000
H       4.387300000000000      1.301900000000000      0.604300000000000
