34

O       1.626900000000000     -0.887100000000000     -0.069600000000000
O       3.632600000000000      0.227500000000000      0.197600000000000
C       1.005700000000000      0.333900000000000     -0.507800000000000
C      -0.481100000000000      0.006900000000000     -0.788300000000000
C      -1.224600000000000     -0.678600000000000      0.363200000000000
C       1.737800000000000      0.726900000000000     -1.796900000000000
C       1.136700000000000      1.327200000000000      0.628400000000000
C      -2.635400000000000     -1.017500000000000     -0.032600000000000
C      -3.734600000000000     -0.253700000000000      0.114500000000000
C       2.945300000000000     -0.783600000000000      0.248800000000000
C       1.293100000000000      2.653600000000000      0.537600000000000
C      -5.122100000000000     -0.651200000000000     -0.303300000000000
C      -3.635200000000000      1.119400000000000      0.723000000000000
C       3.455000000000000     -2.123500000000000      0.685500000000000
H      -1.007600000000000      0.925000000000000     -1.082000000000000
H      -0.525300000000000     -0.666000000000000     -1.656800000000000
H      -1.207100000000000     -0.067700000000000      1.270900000000000
H      -0.722600000000000     -1.616000000000000      0.632300000000000
H       1.904300000000000     -0.145500000000000     -2.440300000000000
H       1.140600000000000      1.448000000000000     -2.368400000000000
H       2.709500000000000      1.204300000000000     -1.643100000000000
H       1.046600000000000      0.920400000000000      1.635600000000000
H      -2.756900000000000     -1.994900000000000     -0.497300000000000
H       1.350800000000000      3.261500000000000      1.434100000000000
H       1.360600000000000      3.156500000000000     -0.420000000000000
H      -5.507700000000000      0.041400000000000     -1.058200000000000
H      -5.796900000000000     -0.642000000000000      0.558700000000000
H      -5.140900000000000     -1.658400000000000     -0.732300000000000
H      -4.139300000000000      1.133600000000000      1.695100000000000
H      -2.615200000000000      1.480800000000000      0.869100000000000
H      -4.130300000000000      1.849900000000000      0.073200000000000
H       3.350700000000000     -2.843800000000000     -0.129800000000000
H       2.906300000000000     -2.459000000000000      1.569200000000000
H       4.514600000000000     -2.041400000000000      0.944200000000000
