34

O      -2.717500000000000      0.273000000000000      0.027000000000000
O      -1.813200000000000     -1.776500000000000      0.579000000000000
C       2.104600000000000     -0.200000000000000     -0.366900000000000
C       2.363800000000000      1.024300000000000      0.521600000000000
C       3.275500000000000     -1.188900000000000     -0.289600000000000
C       3.694400000000000      1.693400000000000      0.185100000000000
C       4.604700000000000     -0.516100000000000     -0.624600000000000
C       4.854600000000000      0.705400000000000      0.254500000000000
C       0.795200000000000     -0.882700000000000      0.024000000000000
C      -0.393300000000000      0.051900000000000     -0.166600000000000
C      -1.697800000000000     -0.620500000000000      0.196200000000000
C      -4.025500000000000     -0.220000000000000      0.333900000000000
C      -5.016800000000000      0.871000000000000      0.098400000000000
C      -6.028800000000000      0.785700000000000     -0.772000000000000
H       2.021800000000000      0.141600000000000     -1.408200000000000
H       2.362200000000000      0.730100000000000      1.578800000000000
H       1.583600000000000      1.781000000000000      0.395300000000000
H       3.108600000000000     -2.022200000000000     -0.982500000000000
H       3.333900000000000     -1.620300000000000      0.718000000000000
H       3.875700000000000      2.523000000000000      0.877900000000000
H       3.642100000000000      2.124300000000000     -0.822500000000000
H       4.604700000000000     -0.213400000000000     -1.678900000000000
H       5.423000000000000     -1.234200000000000     -0.498700000000000
H       5.780700000000000      1.201200000000000     -0.057400000000000
H       4.998200000000000      0.383800000000000      1.293400000000000
H       0.839200000000000     -1.224200000000000      1.066300000000000
H       0.652100000000000     -1.781200000000000     -0.590100000000000
H      -0.453800000000000      0.377500000000000     -1.210900000000000
H      -0.314300000000000      0.927900000000000      0.483500000000000
H      -4.239600000000000     -1.095500000000000     -0.290400000000000
H      -4.063400000000000     -0.515800000000000      1.388600000000000
H      -4.902600000000000      1.783700000000000      0.677300000000000
H      -6.717700000000000      1.614100000000000     -0.895900000000000
H      -6.188200000000000     -0.103100000000000     -1.372400000000000
