34

O      -3.773900000000000     -0.194800000000000      0.196000000000000
O      -1.936000000000000     -1.245600000000000     -0.729500000000000
C       3.907600000000000     -0.574000000000000     -0.342200000000000
C       3.013400000000000      0.467500000000000      0.339200000000000
C       4.533400000000000     -1.567000000000000      0.640800000000000
C       2.394400000000000      1.471300000000000     -0.640300000000000
C       5.442200000000000     -2.588700000000000     -0.025300000000000
C       1.535000000000000      2.505400000000000      0.030300000000000
C       0.229500000000000      2.332800000000000      0.286300000000000
C      -0.491300000000000      1.127000000000000     -0.058000000000000
C      -1.795600000000000      0.964700000000000      0.202300000000000
C      -4.588200000000000     -1.334900000000000     -0.097900000000000
C      -2.469800000000000     -0.296200000000000     -0.178200000000000
C      -6.000700000000000     -1.067500000000000      0.376400000000000
H       4.706000000000000     -0.058500000000000     -0.890000000000000
H       3.317800000000000     -1.125200000000000     -1.084800000000000
H       3.603800000000000      1.010700000000000      1.088400000000000
H       2.218200000000000     -0.053800000000000      0.886600000000000
H       3.737300000000000     -2.096800000000000      1.177300000000000
H       5.112100000000000     -1.017500000000000      1.392800000000000
H       3.205000000000000      2.005600000000000     -1.153700000000000
H       1.859500000000000      0.949900000000000     -1.441800000000000
H       6.273000000000000     -2.095300000000000     -0.539500000000000
H       4.888600000000000     -3.183200000000000     -0.758800000000000
H       5.859900000000000     -3.270800000000000      0.721700000000000
H       2.012300000000000      3.433100000000000      0.334400000000000
H      -0.317700000000000      3.130700000000000      0.781200000000000
H       0.047800000000000      0.316300000000000     -0.535900000000000
H      -2.383800000000000      1.738900000000000      0.684600000000000
H      -4.184900000000000     -2.214100000000000      0.416900000000000
H      -4.588200000000000     -1.514600000000000     -1.178800000000000
H      -6.411100000000000     -0.180000000000000     -0.116500000000000
H      -6.014400000000000     -0.868000000000000      1.453000000000000
H      -6.651700000000000     -1.920800000000000      0.166900000000000
