34

O       1.518900000000000     -0.565000000000000     -0.148600000000000
O       3.693300000000000      0.192100000000000      0.039300000000000
C      -0.496400000000000      0.689900000000000      0.209500000000000
C       1.030100000000000      0.729200000000000      0.207500000000000
C      -1.044700000000000      0.402400000000000     -1.191800000000000
C      -1.013700000000000     -0.358300000000000      1.207700000000000
C      -2.576500000000000      0.417100000000000     -1.201200000000000
C      -3.197400000000000     -0.296200000000000     -0.026400000000000
C      -2.476400000000000     -0.654200000000000      1.050000000000000
C       1.568800000000000      1.087400000000000      1.592200000000000
C       1.541600000000000      1.717100000000000     -0.839300000000000
C      -4.666700000000000     -0.581500000000000     -0.127700000000000
C       2.877000000000000     -0.689100000000000     -0.193600000000000
C       3.242100000000000     -2.091100000000000     -0.577400000000000
H      -0.877500000000000      1.674500000000000      0.519200000000000
H      -0.696100000000000     -0.578000000000000     -1.542000000000000
H      -0.707400000000000      1.140300000000000     -1.926900000000000
H      -0.853900000000000      0.002200000000000      2.230800000000000
H      -0.474800000000000     -1.308400000000000      1.115200000000000
H      -2.920700000000000     -0.038500000000000     -2.137500000000000
H      -2.929600000000000      1.456000000000000     -1.200400000000000
H      -2.954700000000000     -1.185200000000000      1.868900000000000
H       2.599200000000000      1.454600000000000      1.590000000000000
H       0.977800000000000      1.894500000000000      2.041400000000000
H       1.544300000000000      0.228000000000000      2.272100000000000
H       1.541500000000000      1.289800000000000     -1.848700000000000
H       2.562300000000000      2.065600000000000     -0.653100000000000
H       0.931000000000000      2.628200000000000     -0.848300000000000
H      -5.225900000000000      0.351500000000000     -0.251700000000000
H      -5.052500000000000     -1.085000000000000      0.765000000000000
H      -4.870300000000000     -1.226400000000000     -0.988600000000000
H       2.840300000000000     -2.320600000000000     -1.567500000000000
H       2.855600000000000     -2.791400000000000      0.167300000000000
H       4.331200000000000     -2.185600000000000     -0.612700000000000
