34

O      -1.564400000000000     -0.490800000000000      0.341300000000000
O      -2.988400000000000      1.266600000000000     -0.128400000000000
C       0.875600000000000     -0.288900000000000      0.808600000000000
C       1.442200000000000     -0.558000000000000     -0.622000000000000
C       1.279500000000000      0.932300000000000     -1.015100000000000
C      -0.491900000000000      0.413900000000000      0.542500000000000
C       1.814100000000000      0.835600000000000      1.334700000000000
C      -0.217800000000000      1.215200000000000     -0.745000000000000
C       2.077100000000000      1.681000000000000      0.076200000000000
C       0.808500000000000     -1.482700000000000      1.742900000000000
C       0.635200000000000     -1.530600000000000     -1.503700000000000
C       2.899700000000000     -1.065100000000000     -0.665800000000000
C      -2.767800000000000      0.070800000000000      0.007500000000000
C      -3.801600000000000     -0.999200000000000     -0.173700000000000
H       1.590400000000000      1.191100000000000     -2.030000000000000
H      -0.757300000000000      1.074000000000000      1.378400000000000
H       2.751100000000000      0.438600000000000      1.740400000000000
H       1.350700000000000      1.431300000000000      2.129000000000000
H      -0.399200000000000      2.285600000000000     -0.596300000000000
H      -0.822500000000000      0.894400000000000     -1.599500000000000
H       1.742500000000000      2.715700000000000      0.205000000000000
H       3.146600000000000      1.709500000000000     -0.157100000000000
H       0.178700000000000     -2.279400000000000      1.334700000000000
H       1.802500000000000     -1.904600000000000      1.923800000000000
H       0.390800000000000     -1.191600000000000      2.712700000000000
H       1.063500000000000     -1.572500000000000     -2.512400000000000
H       0.665600000000000     -2.544700000000000     -1.089800000000000
H      -0.415500000000000     -1.270600000000000     -1.633700000000000
H       3.282200000000000     -1.035400000000000     -1.692800000000000
H       3.600800000000000     -0.492900000000000     -0.054900000000000
H       2.957600000000000     -2.103500000000000     -0.319700000000000
H      -3.931000000000000     -1.550600000000000      0.760900000000000
H      -3.499000000000000     -1.672500000000000     -0.979600000000000
H      -4.756600000000000     -0.539400000000000     -0.443200000000000
