34

O      -2.824800000000000      0.024100000000000     -0.131000000000000
O      -2.832900000000000     -2.179200000000000      0.563400000000000
C       1.059500000000000      1.330700000000000     -0.585400000000000
C       2.076100000000000      0.936300000000000      0.494000000000000
C      -0.082500000000000      2.179400000000000     -0.066900000000000
C       3.190600000000000      0.083300000000000     -0.045800000000000
C      -1.240200000000000      1.695500000000000      0.423900000000000
C       0.132200000000000      3.668500000000000     -0.160800000000000
C       3.288800000000000     -1.259500000000000     -0.036700000000000
C      -1.634800000000000      0.264700000000000      0.608100000000000
C       4.498500000000000     -1.937100000000000     -0.623800000000000
C       2.257300000000000     -2.202800000000000      0.513400000000000
C      -3.319500000000000     -1.249300000000000     -0.065400000000000
C      -4.568400000000000     -1.354400000000000     -0.887200000000000
H       1.570800000000000      1.871100000000000     -1.393500000000000
H       0.662100000000000      0.427200000000000     -1.065000000000000
H       1.568900000000000      0.430700000000000      1.323400000000000
H       2.520800000000000      1.839100000000000      0.931800000000000
H       4.003000000000000      0.652400000000000     -0.496500000000000
H      -1.992500000000000      2.410400000000000      0.755700000000000
H       0.275000000000000      3.965900000000000     -1.204800000000000
H       1.020800000000000      3.959400000000000      0.408900000000000
H      -0.715000000000000      4.239300000000000      0.233800000000000
H      -1.829000000000000      0.090600000000000      1.673000000000000
H      -0.854100000000000     -0.428300000000000      0.281800000000000
H       4.202700000000000     -2.592600000000000     -1.449500000000000
H       5.230500000000000     -1.222100000000000     -1.013700000000000
H       5.000100000000000     -2.542500000000000      0.138400000000000
H       2.672500000000000     -2.766800000000000      1.355000000000000
H       1.355400000000000     -1.696000000000000      0.864600000000000
H       1.946300000000000     -2.913900000000000     -0.259300000000000
H      -4.344500000000000     -1.125100000000000     -1.932100000000000
H      -5.327200000000000     -0.671600000000000     -0.496900000000000
H      -4.955700000000000     -2.375700000000000     -0.829700000000000
