35

O      -1.971000000000000      2.083100000000000      0.978400000000000
N      -1.358100000000000      0.144900000000000     -0.136000000000000
C       0.562600000000000     -1.157900000000000     -0.454200000000000
C       0.051300000000000      0.111000000000000      0.237700000000000
C      -0.613900000000000     -2.126200000000000     -0.321800000000000
C       1.932300000000000     -1.533300000000000      0.083600000000000
C       0.949200000000000      1.279200000000000     -0.164800000000000
C       2.401300000000000      0.986300000000000      0.277900000000000
C      -1.793600000000000     -1.177800000000000     -0.607900000000000
C       2.910100000000000     -0.386500000000000     -0.215000000000000
C      -0.738900000000000     -2.800800000000000      1.042100000000000
C       3.337000000000000      2.102100000000000     -0.183700000000000
C      -2.198600000000000      1.212400000000000      0.137500000000000
C      -3.469600000000000      1.263400000000000     -0.673800000000000
H       0.672900000000000     -0.957300000000000     -1.532500000000000
H       0.074800000000000      0.008700000000000      1.331100000000000
H      -0.564700000000000     -2.910800000000000     -1.085600000000000
H       2.288500000000000     -2.456400000000000     -0.386600000000000
H       1.896800000000000     -1.708100000000000      1.165100000000000
H       0.601600000000000      2.207500000000000      0.302500000000000
H       0.903100000000000      1.439100000000000     -1.249600000000000
H       2.418200000000000      0.970200000000000      1.376400000000000
H      -1.971500000000000     -1.094300000000000     -1.686000000000000
H      -2.726700000000000     -1.472100000000000     -0.118200000000000
H       3.879500000000000     -0.610100000000000      0.246200000000000
H       3.081200000000000     -0.342800000000000     -1.298600000000000
H       0.120300000000000     -3.451300000000000      1.234100000000000
H      -0.808300000000000     -2.078200000000000      1.860900000000000
H      -1.638800000000000     -3.424400000000000      1.075400000000000
H       4.358300000000000      1.923300000000000      0.168500000000000
H       3.362400000000000      2.173000000000000     -1.276300000000000
H       3.011200000000000      3.070200000000000      0.211000000000000
H      -4.202200000000000      0.571400000000000     -0.250400000000000
H      -3.272100000000000      1.000500000000000     -1.716500000000000
H      -3.878600000000000      2.277500000000000     -0.648100000000000
