35

O      -0.156900000000000      0.641200000000000      2.894600000000000
N       0.033200000000000      2.559100000000000     -1.595800000000000
C       1.302400000000000     -0.801400000000000     -0.280900000000000
C      -1.242800000000000     -0.842500000000000     -0.397500000000000
C       0.017200000000000      1.324300000000000     -0.812800000000000
C      -0.074200000000000      0.342200000000000      1.507600000000000
C       0.058400000000000     -1.630400000000000     -0.678600000000000
C       1.302400000000000      0.515100000000000     -1.094000000000000
C      -1.210100000000000      0.475500000000000     -1.208000000000000
C       1.207600000000000     -0.455700000000000      1.220900000000000
C      -1.297700000000000     -0.498200000000000      1.106700000000000
C      -0.056400000000000      1.646300000000000      0.692300000000000
C       2.580500000000000     -1.597500000000000     -0.560800000000000
C      -2.463600000000000     -1.678000000000000     -0.793800000000000
H       0.111500000000000     -1.895600000000000     -1.743200000000000
H       0.048300000000000     -2.577400000000000     -0.122200000000000
H       2.188000000000000      1.112200000000000     -0.835800000000000
H       1.381000000000000      0.288500000000000     -2.166400000000000
H      -1.184200000000000      0.248400000000000     -2.282900000000000
H      -2.135000000000000      1.042100000000000     -1.031600000000000
H       1.220800000000000     -1.368900000000000      1.831200000000000
H       2.085800000000000      0.121100000000000      1.541200000000000
H      -2.219300000000000      0.049600000000000      1.345900000000000
H      -1.336000000000000     -1.413100000000000      1.713500000000000
H       0.795100000000000      2.268100000000000      1.001500000000000
H      -0.951400000000000      2.239800000000000      0.924900000000000
H       2.595900000000000     -2.533400000000000      0.008400000000000
H       2.663200000000000     -1.851400000000000     -1.623300000000000
H       3.472000000000000     -1.023800000000000     -0.284200000000000
H      -3.394600000000000     -1.133600000000000     -0.600600000000000
H      -2.440000000000000     -1.931600000000000     -1.859400000000000
H      -2.501500000000000     -2.615500000000000     -0.228100000000000
H      -0.826400000000000      3.082900000000000     -1.434900000000000
H       0.049400000000000      2.339500000000000     -2.591100000000000
H       0.622700000000000      1.170900000000000      3.133700000000000
