35

O      -1.603300000000000      1.952300000000000      0.103300000000000
N      -2.466100000000000     -0.052200000000000     -0.697300000000000
C      -4.726900000000000     -0.556400000000000      0.175200000000000
C      -3.859400000000000      0.333400000000000     -0.722100000000000
C      -4.261500000000000     -0.448300000000000      1.627700000000000
C      -4.692200000000000     -2.018200000000000     -0.276500000000000
C       4.832300000000000      0.397500000000000      0.302000000000000
C       5.086200000000000     -1.063500000000000     -0.085900000000000
C      -1.454700000000000      0.797800000000000     -0.283800000000000
C       3.413900000000000      0.904200000000000      0.312000000000000
C       6.559200000000000     -1.447500000000000     -0.046300000000000
C      -0.117700000000000      0.145200000000000     -0.360800000000000
C       2.307400000000000      0.237100000000000     -0.049900000000000
C       0.982800000000000      0.818600000000000      0.002500000000000
H      -5.762200000000000     -0.199600000000000      0.111300000000000
H      -4.190800000000000      0.253000000000000     -1.763400000000000
H      -3.963100000000000      1.383100000000000     -0.426300000000000
H      -4.937000000000000     -1.004900000000000      2.286600000000000
H      -4.260100000000000      0.595100000000000      1.960800000000000
H      -3.254500000000000     -0.854000000000000      1.770700000000000
H      -3.699700000000000     -2.464500000000000     -0.157200000000000
H      -4.983500000000000     -2.107000000000000     -1.328300000000000
H      -5.394700000000000     -2.615900000000000      0.314600000000000
H      -2.230200000000000     -0.975800000000000     -1.048000000000000
H       5.406900000000000      1.043700000000000     -0.373600000000000
H       5.242300000000000      0.561900000000000      1.306900000000000
H       4.533100000000000     -1.725900000000000      0.591000000000000
H       4.706000000000000     -1.247500000000000     -1.098000000000000
H       3.312100000000000      1.933400000000000      0.655100000000000
H       7.141400000000000     -0.832300000000000     -0.739600000000000
H       6.686200000000000     -2.496500000000000     -0.331400000000000
H       6.970000000000000     -1.314800000000000      0.959600000000000
H      -0.061900000000000     -0.879900000000000     -0.714200000000000
H       2.380200000000000     -0.789000000000000     -0.398700000000000
H       0.911700000000000      1.844400000000000      0.355000000000000
