35

O       1.104800000000000     -2.014000000000000      0.276100000000000
N       2.410700000000000     -0.128800000000000     -0.003500000000000
C      -2.545100000000000     -0.043300000000000     -0.386100000000000
C      -3.799200000000000     -0.911900000000000     -0.380000000000000
C      -2.867900000000000      1.001500000000000      0.677300000000000
C      -4.942000000000000      0.087400000000000     -0.228500000000000
C      -4.339800000000000      1.323800000000000      0.441200000000000
C      -1.275200000000000     -0.823100000000000     -0.093500000000000
C      -0.023400000000000      0.032800000000000     -0.182900000000000
C       2.599200000000000      1.295500000000000     -0.260900000000000
C       3.688300000000000     -0.796200000000000      0.200100000000000
C       4.096700000000000      1.444800000000000     -0.489400000000000
C       4.686400000000000      0.338100000000000      0.375700000000000
C       1.206500000000000     -0.806300000000000      0.054300000000000
H      -2.459700000000000      0.448500000000000     -1.364800000000000
H      -3.794200000000000     -1.599400000000000      0.474900000000000
H      -3.896700000000000     -1.510800000000000     -1.290800000000000
H      -2.243400000000000      1.896400000000000      0.594400000000000
H      -2.736600000000000      0.590000000000000      1.685600000000000
H      -5.763400000000000     -0.334700000000000      0.359400000000000
H      -5.346500000000000      0.357500000000000     -1.210800000000000
H      -4.438600000000000      2.189900000000000     -0.223400000000000
H      -4.849900000000000      1.569500000000000      1.378200000000000
H      -1.340000000000000     -1.286400000000000      0.900000000000000
H      -1.202900000000000     -1.650800000000000     -0.811800000000000
H       0.042300000000000      0.484200000000000     -1.178700000000000
H      -0.049700000000000      0.831900000000000      0.565200000000000
H       2.272600000000000      1.842800000000000      0.629900000000000
H       2.011200000000000      1.626300000000000     -1.120700000000000
H       3.902600000000000     -1.385500000000000     -0.698300000000000
H       3.644700000000000     -1.468700000000000      1.062000000000000
H       4.466400000000000      2.439100000000000     -0.224500000000000
H       4.336300000000000      1.257700000000000     -1.543200000000000
H       5.700800000000000      0.057100000000000      0.079900000000000
H       4.709200000000000      0.660100000000000      1.423800000000000
