35

O       3.809500000000000      0.075100000000000     -0.005300000000000
N       1.559400000000000     -0.510300000000000     -0.094100000000000
C      -0.519300000000000      0.734600000000000      0.147600000000000
C       1.005800000000000      0.811500000000000      0.149800000000000
C      -1.049800000000000      0.300500000000000     -1.222600000000000
C      -1.018500000000000     -0.225800000000000      1.239000000000000
C      -2.581400000000000      0.276100000000000     -1.241400000000000
C       1.498500000000000      1.318300000000000      1.512400000000000
C       1.485000000000000      1.761500000000000     -0.955700000000000
C      -3.193700000000000     -0.336700000000000     -0.006800000000000
C      -2.472400000000000     -0.571800000000000      1.102800000000000
C      -4.654800000000000     -0.666900000000000     -0.087900000000000
C       2.916000000000000     -0.755200000000000     -0.148900000000000
C       3.215700000000000     -2.210800000000000     -0.388700000000000
H      -0.928500000000000      1.733600000000000      0.360500000000000
H      -0.686500000000000     -0.698900000000000     -1.491000000000000
H      -0.730800000000000      0.978300000000000     -2.020700000000000
H      -0.890000000000000      0.246100000000000      2.220600000000000
H      -0.465400000000000     -1.169900000000000      1.269300000000000
H      -2.908000000000000     -0.274900000000000     -2.131600000000000
H      -2.959700000000000      1.301300000000000     -1.341600000000000
H       2.562200000000000      1.578500000000000      1.501600000000000
H       0.961200000000000      2.225800000000000      1.811600000000000
H       1.371200000000000      0.571000000000000      2.303500000000000
H       1.405600000000000      1.318200000000000     -1.954500000000000
H       2.536800000000000      2.042100000000000     -0.831300000000000
H       0.914800000000000      2.697800000000000     -0.947000000000000
H      -2.944200000000000     -1.033100000000000      1.966500000000000
H       0.932500000000000     -1.292500000000000     -0.255500000000000
H      -5.235600000000000      0.235700000000000     -0.303800000000000
H      -5.034900000000000     -1.092200000000000      0.846900000000000
H      -4.836000000000000     -1.396200000000000     -0.884000000000000
H       4.292600000000000     -2.349200000000000     -0.519000000000000
H       2.880400000000000     -2.801600000000000      0.468200000000000
H       2.704900000000000     -2.555000000000000     -1.292500000000000
