35

O      -3.480500000000000      0.058400000000000     -0.101700000000000
N       2.305200000000000     -1.944100000000000     -0.876000000000000
C      -1.145800000000000     -0.435900000000000     -0.210900000000000
C       0.588800000000000      1.428100000000000     -0.275500000000000
C       1.326700000000000     -1.000200000000000     -0.336700000000000
C       0.361000000000000     -0.028700000000000      1.782600000000000
C      -0.826600000000000      0.989700000000000     -0.718600000000000
C      -0.092600000000000     -1.414000000000000     -0.783400000000000
C       1.620300000000000      0.426400000000000     -0.846800000000000
C      -1.047400000000000     -0.447200000000000      1.331400000000000
C       0.660200000000000      1.388200000000000      1.267900000000000
C       1.394000000000000     -1.009600000000000      1.204000000000000
C      -2.551300000000000     -0.853200000000000     -0.654000000000000
C       0.888000000000000      2.842200000000000     -0.782400000000000
H       0.415500000000000     -0.041400000000000      2.877100000000000
H      -1.563700000000000      1.708200000000000     -0.336300000000000
H      -0.901200000000000      1.021100000000000     -1.814000000000000
H      -0.313600000000000     -2.435900000000000     -0.445300000000000
H      -0.154400000000000     -1.428500000000000     -1.880300000000000
H       1.592500000000000      0.447800000000000     -1.945000000000000
H       2.635000000000000      0.731000000000000     -0.555200000000000
H      -1.275800000000000     -1.448500000000000      1.718700000000000
H      -1.781400000000000      0.236500000000000      1.776100000000000
H      -0.058700000000000      2.096500000000000      1.699600000000000
H       1.654800000000000      1.702100000000000      1.610100000000000
H       2.398400000000000     -0.728900000000000      1.547900000000000
H       1.198500000000000     -2.017800000000000      1.592900000000000
H      -2.796100000000000     -1.860600000000000     -0.300500000000000
H      -2.646000000000000     -0.834100000000000     -1.745100000000000
H       0.840900000000000      2.888200000000000     -1.876000000000000
H       0.166400000000000      3.565200000000000     -0.386300000000000
H       1.888600000000000      3.168000000000000     -0.477300000000000
H       2.125200000000000     -2.878400000000000     -0.510000000000000
H       3.241100000000000     -1.691400000000000     -0.560500000000000
H      -4.365000000000000     -0.221200000000000     -0.392600000000000
