35

O       2.946900000000000     -1.351300000000000      0.287700000000000
N       1.696800000000000      0.613300000000000      0.250900000000000
C      -0.500600000000000     -0.378400000000000     -0.504200000000000
C      -1.896800000000000     -0.434700000000000      0.194700000000000
C      -1.769900000000000      1.040100000000000      0.659100000000000
C       0.437400000000000      0.058200000000000      0.666600000000000
C      -0.664600000000000      0.827400000000000     -1.473100000000000
C      -0.436700000000000      1.064100000000000      1.444600000000000
C      -1.518200000000000      1.811200000000000     -0.655700000000000
C      -0.041700000000000     -1.643300000000000     -1.206400000000000
C      -3.098200000000000     -0.698200000000000     -0.736700000000000
C      -2.026100000000000     -1.449200000000000      1.349200000000000
C       2.851400000000000     -0.141900000000000      0.095700000000000
C       4.020400000000000      0.682600000000000     -0.372400000000000
H      -2.613900000000000      1.430200000000000      1.232800000000000
H       0.664200000000000     -0.800000000000000      1.310500000000000
H      -1.181200000000000      0.542100000000000     -2.396500000000000
H       0.287000000000000      1.273900000000000     -1.777500000000000
H      -0.004400000000000      2.069600000000000      1.494400000000000
H      -0.586200000000000      0.725800000000000      2.475800000000000
H      -0.997900000000000      2.760800000000000     -0.491500000000000
H      -2.455800000000000      2.037000000000000     -1.174500000000000
H       0.091100000000000     -2.467400000000000     -0.498100000000000
H      -0.768400000000000     -1.965100000000000     -1.959300000000000
H       0.911100000000000     -1.486200000000000     -1.722200000000000
H      -4.039100000000000     -0.537800000000000     -0.197400000000000
H      -3.092300000000000     -1.735000000000000     -1.091800000000000
H      -3.135700000000000     -0.063400000000000     -1.624200000000000
H      -2.981200000000000     -1.311900000000000      1.869900000000000
H      -1.247200000000000     -1.379700000000000      2.110700000000000
H      -2.002000000000000     -2.475400000000000      0.965300000000000
H       1.728700000000000      1.601700000000000      0.017300000000000
H       4.946300000000000      0.115900000000000     -0.241500000000000
H       3.892200000000000      0.925800000000000     -1.430700000000000
H       4.091700000000000      1.606900000000000      0.208000000000000
