35

O      -1.536100000000000      0.475000000000000     -0.848600000000000
N      -1.552100000000000     -1.502800000000000      0.248300000000000
C       2.948400000000000     -0.360800000000000     -0.539700000000000
C       1.517600000000000     -0.193100000000000     -0.025000000000000
C       3.962200000000000      0.262800000000000      0.421100000000000
C       0.501700000000000     -0.788300000000000     -1.004000000000000
C       5.388800000000000      0.124400000000000     -0.109600000000000
C      -0.908100000000000     -0.657900000000000     -0.485300000000000
C      -2.755400000000000      0.327100000000000     -0.259700000000000
C      -2.760900000000000     -0.874200000000000      0.404600000000000
C       6.396600000000000      0.772300000000000      0.826400000000000
C      -3.725500000000000      1.410500000000000     -0.451200000000000
C      -3.839200000000000     -1.491400000000000      1.189700000000000
C      -3.638000000000000      2.496400000000000      0.632900000000000
H       3.171000000000000     -1.426900000000000     -0.669200000000000
H       3.039800000000000      0.111100000000000     -1.525700000000000
H       1.300900000000000      0.871700000000000      0.128300000000000
H       1.419100000000000     -0.679200000000000      0.954000000000000
H       3.885200000000000     -0.220400000000000      1.402700000000000
H       3.726300000000000      1.324400000000000      0.564200000000000
H       0.579000000000000     -0.291800000000000     -1.978700000000000
H       0.716200000000000     -1.851400000000000     -1.166100000000000
H       5.639300000000000     -0.935900000000000     -0.231700000000000
H       5.466100000000000      0.592100000000000     -1.098000000000000
H       7.410000000000000      0.660400000000000      0.428500000000000
H       6.193400000000000      1.841600000000000      0.942500000000000
H       6.367300000000000      0.307100000000000      1.816900000000000
H      -3.573700000000000      1.877500000000000     -1.431600000000000
H      -4.742100000000000      1.000000000000000     -0.457000000000000
H      -3.507000000000000     -2.427300000000000      1.649800000000000
H      -4.168000000000000     -0.821000000000000      1.990000000000000
H      -4.700000000000000     -1.715400000000000      0.552000000000000
H      -3.828200000000000      2.074600000000000      1.625500000000000
H      -4.378600000000000      3.279500000000000      0.443700000000000
H      -2.644300000000000      2.956700000000000      0.645300000000000
