35

O       2.357900000000000      2.155000000000000     -0.278300000000000
N      -1.383000000000000      0.234300000000000      0.279700000000000
C       1.027600000000000      0.129100000000000     -0.219800000000000
C      -0.147100000000000      1.011400000000000      0.190500000000000
C       1.211300000000000     -1.024100000000000      0.771500000000000
C      -1.714400000000000     -0.356100000000000     -1.024700000000000
C      -2.482400000000000      1.072700000000000      0.778100000000000
C       2.431500000000000     -1.877800000000000      0.429300000000000
C      -2.978300000000000     -1.213100000000000     -0.937600000000000
C      -3.771500000000000      0.262700000000000      0.924000000000000
C      -4.153700000000000     -0.412900000000000     -0.388200000000000
C       2.324600000000000      0.926100000000000     -0.321300000000000
C       3.699900000000000     -1.029500000000000      0.392000000000000
C       3.577400000000000      0.121900000000000     -0.595400000000000
H       0.892200000000000     -0.264400000000000     -1.233500000000000
H      -0.259300000000000      1.842100000000000     -0.519700000000000
H       0.074200000000000      1.465800000000000      1.165700000000000
H       0.332900000000000     -1.679000000000000      0.783000000000000
H       1.330200000000000     -0.629100000000000      1.789100000000000
H      -0.936400000000000     -1.036300000000000     -1.380800000000000
H      -1.847800000000000      0.423000000000000     -1.786700000000000
H      -2.657900000000000      1.925600000000000      0.109000000000000
H      -2.223000000000000      1.479400000000000      1.763200000000000
H       2.282200000000000     -2.366000000000000     -0.541300000000000
H       2.544200000000000     -2.672400000000000      1.175600000000000
H      -2.791800000000000     -2.079400000000000     -0.290000000000000
H      -3.230700000000000     -1.604200000000000     -1.929800000000000
H      -4.585600000000000      0.918400000000000      1.253000000000000
H      -3.640100000000000     -0.499600000000000      1.702700000000000
H      -4.451400000000000      0.349000000000000     -1.119000000000000
H      -5.017700000000000     -1.069000000000000     -0.236100000000000
H       4.556800000000000     -1.656900000000000      0.122500000000000
H       3.895500000000000     -0.631300000000000      1.395700000000000
H       3.526800000000000     -0.247500000000000     -1.625400000000000
H       4.450400000000000      0.777800000000000     -0.512500000000000
