35

O       4.113300000000000      0.623900000000000     -0.019800000000000
N       2.366700000000000     -1.578600000000000      0.180300000000000
C       0.420400000000000     -0.139000000000000     -0.206200000000000
C      -1.422600000000000      0.096700000000000      1.517800000000000
C      -1.573300000000000      1.359600000000000     -0.657900000000000
C      -1.868000000000000     -1.143100000000000     -0.630600000000000
C       0.090500000000000     -0.083800000000000      1.304400000000000
C      -0.059800000000000      1.175700000000000     -0.865300000000000
C      -0.353600000000000     -1.320000000000000     -0.838300000000000
C      -1.875700000000000      1.405200000000000      0.849200000000000
C      -2.168800000000000     -1.085000000000000      0.876300000000000
C      -2.318700000000000      0.171600000000000     -1.288400000000000
C       1.926500000000000     -0.318600000000000     -0.414700000000000
C       2.723100000000000      0.835400000000000      0.193300000000000
H      -1.643800000000000      0.134500000000000      2.590500000000000
H      -1.900800000000000      2.293000000000000     -1.129200000000000
H      -2.404600000000000     -1.984800000000000     -1.082700000000000
H       0.593900000000000      0.751600000000000      1.801900000000000
H       0.392900000000000     -0.998400000000000      1.826100000000000
H       0.169500000000000      1.170600000000000     -1.938600000000000
H       0.437400000000000      2.051900000000000     -0.436400000000000
H      -0.076500000000000     -2.281700000000000     -0.392700000000000
H      -0.133600000000000     -1.389800000000000     -1.911400000000000
H      -2.950300000000000      1.555400000000000      1.010700000000000
H      -1.362900000000000      2.258900000000000      1.309200000000000
H      -1.866800000000000     -2.024100000000000      1.355800000000000
H      -3.248400000000000     -0.978100000000000      1.038300000000000
H      -3.401000000000000      0.300400000000000     -1.164600000000000
H      -2.123700000000000      0.136900000000000     -2.367300000000000
H       2.156200000000000     -0.373200000000000     -1.486300000000000
H       2.485900000000000      1.798900000000000     -0.262900000000000
H       2.594200000000000      0.925900000000000      1.274400000000000
H       1.902100000000000     -2.381200000000000     -0.233000000000000
H       2.210800000000000     -1.603900000000000      1.183800000000000
H       4.258100000000000      0.569400000000000     -0.979900000000000
