36

N       4.611000000000000      0.829900000000000      0.638500000000000
N       5.495900000000000     -1.086800000000000     -0.050500000000000
C      -1.337800000000000     -0.212100000000000      0.064800000000000
C      -2.683200000000000      0.467600000000000     -0.199800000000000
C      -0.135200000000000      0.622400000000000     -0.385200000000000
C      -3.849400000000000     -0.422100000000000      0.240100000000000
C       1.211800000000000     -0.023900000000000     -0.054000000000000
C      -5.195600000000000      0.243600000000000     -0.054100000000000
C       2.376500000000000      0.885200000000000     -0.460200000000000
C      -6.396500000000000     -0.616600000000000      0.344800000000000
C       3.708200000000000      0.240800000000000     -0.168200000000000
C      -7.736300000000000      0.009400000000000     -0.010200000000000
C       4.244000000000000     -0.924700000000000     -0.588900000000000
C       5.686700000000000     -0.012700000000000      0.683000000000000
H      -1.247500000000000     -0.421700000000000      1.138000000000000
H      -1.310800000000000     -1.180600000000000     -0.449900000000000
H      -2.723900000000000      1.423300000000000      0.336400000000000
H      -2.773500000000000      0.691800000000000     -1.269400000000000
H      -0.188400000000000      1.607300000000000      0.095500000000000
H      -0.200600000000000      0.794300000000000     -1.466700000000000
H      -3.796400000000000     -1.384400000000000     -0.283200000000000
H      -3.770600000000000     -0.632100000000000      1.313500000000000
H       1.266100000000000     -0.233700000000000      1.021800000000000
H       1.283700000000000     -0.989700000000000     -0.569300000000000
H      -5.250500000000000      1.203700000000000      0.473800000000000
H      -5.258600000000000      0.468200000000000     -1.126300000000000
H       2.298200000000000      1.844800000000000      0.065900000000000
H       2.323700000000000      1.102700000000000     -1.534100000000000
H      -6.365700000000000     -0.804000000000000      1.424700000000000
H      -6.323900000000000     -1.593000000000000     -0.149000000000000
H      -8.556400000000000     -0.646100000000000      0.298500000000000
H      -7.861600000000000      0.973400000000000      0.492900000000000
H      -7.817400000000000      0.172100000000000     -1.089600000000000
H       4.523500000000000      1.715600000000000      1.120100000000000
H       3.818100000000000     -1.667500000000000     -1.247500000000000
H       6.569400000000000      0.213000000000000      1.264100000000000
