36

N      -3.699600000000000     -0.560100000000000     -0.004400000000000
N       3.699500000000000     -0.560100000000000      0.004600000000000
C      -1.273800000000000     -0.507900000000000      0.003200000000000
C       1.273700000000000     -0.507900000000000     -0.003200000000000
C       0.003300000000000      1.282800000000000      1.259000000000000
C      -0.003200000000000      1.282900000000000     -1.259000000000000
C       0.000100000000000     -1.386200000000000     -0.000200000000000
C      -1.250600000000000      0.392800000000000      1.259800000000000
C      -1.257200000000000      0.393100000000000     -1.253100000000000
C       1.257100000000000      0.392900000000000      1.253200000000000
C       1.250700000000000      0.393100000000000     -1.259600000000000
C       0.000000000000000      2.164000000000000      0.000000000000000
C      -2.525700000000000     -1.389700000000000      0.006400000000000
C       2.525700000000000     -1.389700000000000     -0.006700000000000
H       0.005400000000000      1.916600000000000      2.153000000000000
H      -0.006000000000000      1.916700000000000     -2.153000000000000
H       0.002100000000000     -2.043800000000000      0.879500000000000
H      -0.002000000000000     -2.043600000000000     -0.880100000000000
H      -1.266600000000000     -0.221700000000000      2.169200000000000
H      -2.126800000000000      1.050100000000000      1.306000000000000
H      -2.141600000000000      1.041000000000000     -1.294300000000000
H      -1.275200000000000     -0.222200000000000     -2.162100000000000
H       2.126500000000000      1.058100000000000      1.297000000000000
H       1.279200000000000     -0.220800000000000      2.163000000000000
H       1.267800000000000     -0.220800000000000     -2.169400000000000
H       2.120500000000000      1.057300000000000     -1.308500000000000
H      -0.881000000000000      2.817600000000000      0.002200000000000
H       0.880500000000000      2.818400000000000     -0.002300000000000
H      -2.541000000000000     -2.047500000000000      0.883100000000000
H      -2.531500000000000     -2.035400000000000     -0.879600000000000
H       2.543300000000000     -2.035100000000000     -0.892200000000000
H       2.537900000000000     -2.049800000000000      0.868000000000000
H      -3.831900000000000     -0.115300000000000      0.902400000000000
H      -4.526000000000000     -1.141000000000000     -0.142500000000000
H       3.766000000000000      0.015000000000000      0.838700000000000
H       3.761100000000000      0.047000000000000     -0.806600000000000
