36

N      -3.697600000000000     -0.252800000000000      0.204800000000000
N      -5.481000000000000      1.042100000000000      0.207200000000000
C       1.302800000000000      0.090600000000000     -0.253100000000000
C       2.666200000000000     -0.441400000000000      0.200300000000000
C       0.123400000000000     -0.671100000000000      0.357200000000000
C       3.845500000000000      0.364600000000000     -0.348800000000000
C      -1.238300000000000     -0.101600000000000     -0.051100000000000
C       5.176400000000000     -0.164000000000000      0.191100000000000
C      -2.413900000000000     -0.812800000000000      0.619000000000000
C       6.358400000000000      0.618600000000000     -0.380200000000000
C       7.684200000000000      0.074200000000000      0.127100000000000
C      -4.435700000000000     -0.665700000000000     -0.854900000000000
C      -4.349400000000000      0.767200000000000      0.817200000000000
C      -5.541100000000000      0.152000000000000     -0.835700000000000
H       1.240500000000000      0.040500000000000     -1.347000000000000
H       1.224100000000000      1.150100000000000      0.020700000000000
H       2.704200000000000     -0.430600000000000      1.296800000000000
H       2.764700000000000     -1.489100000000000     -0.109400000000000
H       0.178900000000000     -1.725400000000000      0.060000000000000
H       0.207700000000000     -0.644800000000000      1.450600000000000
H       3.841600000000000      0.315400000000000     -1.444300000000000
H       3.730900000000000      1.419400000000000     -0.071400000000000
H      -1.271800000000000      0.966700000000000      0.198700000000000
H      -1.342200000000000     -0.165200000000000     -1.141900000000000
H       5.280400000000000     -1.225000000000000     -0.067000000000000
H       5.184000000000000     -0.095500000000000      1.285800000000000
H      -2.425800000000000     -1.878900000000000      0.365000000000000
H      -2.357100000000000     -0.726700000000000      1.710200000000000
H       6.272900000000000      1.676100000000000     -0.104300000000000
H       6.345500000000000      0.566900000000000     -1.475100000000000
H       7.743000000000000      0.139100000000000      1.218200000000000
H       7.815000000000000     -0.973300000000000     -0.162700000000000
H       8.515499999999999      0.649100000000000     -0.292800000000000
H      -4.133900000000000     -1.469700000000000     -1.511700000000000
H      -3.966300000000000      1.274300000000000      1.692300000000000
H      -6.376600000000000      0.145600000000000     -1.520400000000000
