36

N       0.764000000000000      0.648300000000000      0.469300000000000
N      -1.700900000000000     -0.853200000000000      0.688500000000000
C      -0.568700000000000     -0.259400000000000     -1.472800000000000
C       0.839800000000000      0.044800000000000     -0.878400000000000
C      -1.528900000000000      1.532700000000000     -0.086600000000000
C      -1.363400000000000      1.048900000000000     -1.526700000000000
C      -0.133300000000000      1.814300000000000      0.510100000000000
C      -1.405900000000000     -1.293900000000000     -0.682100000000000
C       1.724900000000000     -1.214300000000000     -0.850900000000000
C      -2.324400000000000      0.478300000000000      0.715500000000000
C       2.092700000000000      1.002300000000000      0.986600000000000
C       3.116500000000000     -0.899100000000000     -0.310700000000000
C       3.012300000000000     -0.216600000000000      1.047200000000000
C      -2.524800000000000     -1.833100000000000      1.391100000000000
H      -0.441200000000000     -0.633400000000000     -2.496800000000000
H       1.321100000000000      0.768300000000000     -1.554200000000000
H      -2.100100000000000      2.469300000000000     -0.086700000000000
H      -2.341800000000000      0.889500000000000     -1.996200000000000
H      -0.837600000000000      1.798500000000000     -2.130400000000000
H       0.316600000000000      2.654400000000000     -0.036400000000000
H      -0.258500000000000      2.139900000000000      1.550300000000000
H      -2.342700000000000     -1.475400000000000     -1.227300000000000
H      -0.875000000000000     -2.252000000000000     -0.658000000000000
H       1.813900000000000     -1.632500000000000     -1.860400000000000
H       1.277600000000000     -1.990700000000000     -0.219300000000000
H      -2.410200000000000      0.819600000000000      1.754600000000000
H      -3.343900000000000      0.426100000000000      0.309500000000000
H       1.999900000000000      1.408500000000000      2.001200000000000
H       2.556000000000000      1.780600000000000      0.366100000000000
H       3.645500000000000     -0.244200000000000     -1.013800000000000
H       3.703100000000000     -1.820300000000000     -0.223900000000000
H       2.628200000000000     -0.930400000000000      1.787100000000000
H       4.009200000000000      0.088300000000000      1.385200000000000
H      -2.020800000000000     -2.805300000000000      1.425800000000000
H      -3.502800000000000     -1.968300000000000      0.915500000000000
H      -2.686100000000000     -1.526000000000000      2.430400000000000
