36

N       4.332200000000000      0.718400000000000     -0.847200000000000
N       4.404100000000000     -0.657400000000000      0.894500000000000
C      -1.310300000000000      0.148300000000000      0.164700000000000
C      -2.656800000000000     -0.391500000000000     -0.323100000000000
C      -0.109000000000000     -0.628400000000000     -0.381900000000000
C      -3.821700000000000      0.400700000000000      0.277300000000000
C       1.239000000000000     -0.043900000000000      0.046200000000000
C      -5.168900000000000     -0.159300000000000     -0.184800000000000
C       2.402300000000000     -0.814700000000000     -0.586600000000000
C      -6.368500000000000      0.583200000000000      0.407600000000000
C       3.734900000000000     -0.266200000000000     -0.142600000000000
C      -7.709200000000000     -0.013500000000000      0.008300000000000
C       5.505000000000000      0.992800000000000     -0.202000000000000
C       5.526900000000000      0.131500000000000      0.869800000000000
H      -1.219700000000000      1.201800000000000     -0.128100000000000
H      -1.281900000000000      0.121200000000000      1.261100000000000
H      -2.698800000000000     -0.339500000000000     -1.417700000000000
H      -2.747400000000000     -1.448400000000000     -0.045000000000000
H      -0.163500000000000     -0.639000000000000     -1.477700000000000
H      -0.174600000000000     -1.672500000000000     -0.051700000000000
H      -3.767300000000000      0.363200000000000      1.371900000000000
H      -3.742500000000000      1.454600000000000     -0.015300000000000
H       1.291900000000000      1.012200000000000     -0.247000000000000
H       1.320500000000000     -0.072800000000000      1.140000000000000
H      -5.225100000000000     -0.116700000000000     -1.279600000000000
H      -5.232200000000000     -1.218600000000000      0.094100000000000
H       2.331000000000000     -0.777100000000000     -1.680600000000000
H       2.347600000000000     -1.872000000000000     -0.299800000000000
H      -6.337300000000000      1.632800000000000      0.092100000000000
H      -6.294400000000000      0.578200000000000      1.501600000000000
H      -8.528300000000000      0.556500000000000      0.457500000000000
H      -7.835900000000000      0.005300000000000     -1.078700000000000
H      -7.790500000000000     -1.051600000000000      0.345800000000000
H       3.988400000000000      1.170200000000000     -1.684900000000000
H       6.191400000000000      1.749600000000000     -0.552900000000000
H       6.294300000000000      0.039200000000000      1.624500000000000
