36

N       4.406400000000000      0.447600000000000      0.918800000000000
N       5.583600000000000      0.899900000000000      0.454300000000000
C      -1.352300000000000      0.206000000000000     -0.032900000000000
C      -2.704300000000000     -0.453600000000000      0.248300000000000
C      -0.156900000000000     -0.680900000000000      0.329500000000000
C      -3.862900000000000      0.463900000000000     -0.152600000000000
C       1.194600000000000     -0.049400000000000     -0.021300000000000
C      -5.214200000000000     -0.211300000000000      0.092900000000000
C       2.384900000000000     -0.940000000000000      0.355100000000000
C      -6.408800000000000      0.675900000000000     -0.263200000000000
C       3.726200000000000     -0.332000000000000      0.029900000000000
C      -7.752200000000000     -0.015600000000000     -0.088500000000000
C       4.512900000000000     -0.393400000000000     -1.094400000000000
C       5.643100000000000      0.383000000000000     -0.775900000000000
H      -1.293700000000000      0.464900000000000     -1.097500000000000
H      -1.282800000000000      1.147300000000000      0.526100000000000
H      -2.778100000000000     -0.699200000000000      1.314500000000000
H      -2.772300000000000     -1.396800000000000     -0.307100000000000
H      -0.186500000000000     -0.901600000000000      1.403500000000000
H      -0.248800000000000     -1.640400000000000     -0.194300000000000
H      -3.809100000000000      1.397000000000000      0.421000000000000
H      -3.775500000000000      0.729600000000000     -1.213000000000000
H       1.226700000000000      0.166200000000000     -1.096900000000000
H       1.285900000000000      0.916400000000000      0.491900000000000
H      -5.289200000000000     -0.503900000000000      1.147600000000000
H      -5.265900000000000     -1.135600000000000     -0.496100000000000
H       2.301100000000000     -1.899600000000000     -0.170700000000000
H       2.346600000000000     -1.169100000000000      1.427700000000000
H      -6.317500000000000      1.006500000000000     -1.304800000000000
H      -6.389000000000000      1.578300000000000      0.359200000000000
H      -7.822000000000000     -0.900400000000000     -0.729000000000000
H      -8.567700000000000      0.663900000000000     -0.355100000000000
H      -7.896100000000000     -0.330900000000000      0.949800000000000
H       4.300200000000000     -0.922700000000000     -2.011600000000000
H       4.128100000000000      0.711900000000000      1.855700000000000
H       6.507500000000000      0.593600000000000     -1.389100000000000
