36

N      -0.764100000000000     -0.648500000000000     -0.469200000000000
N       1.700800000000000      0.853100000000000     -0.688500000000000
C       0.568800000000000      0.259500000000000      1.472700000000000
C      -0.839600000000000     -0.044400000000000      0.878300000000000
C       1.528900000000000     -1.532800000000000      0.086600000000000
C       1.363400000000000     -1.049000000000000      1.526700000000000
C       0.133300000000000     -1.814300000000000     -0.510000000000000
C       1.406200000000000      1.293900000000000      0.682100000000000
C      -1.724500000000000      1.214900000000000      0.850100000000000
C       2.324400000000000     -0.478400000000000     -0.715400000000000
C      -2.093000000000000     -1.002800000000000     -0.985800000000000
C      -3.116400000000000      0.899800000000000      0.310600000000000
C      -3.012800000000000      0.216000000000000     -1.046700000000000
C       2.524700000000000      1.833100000000000     -1.391400000000000
H       0.441400000000000      0.633400000000000      2.496800000000000
H      -1.321200000000000     -0.767500000000000      1.554300000000000
H       2.100000000000000     -2.469500000000000      0.086800000000000
H       0.837300000000000     -1.798500000000000      2.130400000000000
H       2.341700000000000     -0.889800000000000      1.996300000000000
H       0.258500000000000     -2.140000000000000     -1.550200000000000
H      -0.316600000000000     -2.654400000000000      0.036600000000000
H       0.875500000000000      2.252100000000000      0.658200000000000
H       2.343100000000000      1.475200000000000      1.227200000000000
H      -1.277200000000000      1.990800000000000      0.217800000000000
H      -1.813000000000000      1.633900000000000      1.859300000000000
H       3.343900000000000     -0.426100000000000     -0.309300000000000
H       2.410400000000000     -0.819800000000000     -1.754500000000000
H      -2.556000000000000     -1.780800000000000     -0.364800000000000
H      -2.000700000000000     -1.409600000000000     -2.000300000000000
H      -3.702600000000000      1.821100000000000      0.223300000000000
H      -3.645300000000000      0.245600000000000      1.014400000000000
H      -4.009800000000000     -0.089200000000000     -1.383900000000000
H      -2.629100000000000      0.929300000000000     -1.787400000000000
H       2.685900000000000      1.525800000000000     -2.430600000000000
H       3.502700000000000      1.968400000000000     -0.915900000000000
H       2.020700000000000      2.805200000000000     -1.426200000000000
