36

N       1.548000000000000      0.984000000000000     -0.007500000000000
N       4.860800000000000     -0.705500000000000      0.001100000000000
C       0.176800000000000      0.477400000000000     -0.008700000000000
C      -2.263600000000000      1.136500000000000     -0.030300000000000
C      -1.512400000000000     -0.944800000000000     -1.239100000000000
C      -1.518600000000000     -0.883900000000000      1.281700000000000
C      -0.815800000000000      1.660200000000000     -0.039600000000000
C      -0.066700000000000     -0.415300000000000     -1.245300000000000
C      -0.072800000000000     -0.355000000000000      1.269300000000000
C      -2.487300000000000      0.244800000000000     -1.263500000000000
C      -2.493100000000000      0.305600000000000      1.243700000000000
C      -1.745900000000000     -1.764700000000000      0.041200000000000
C       2.482900000000000     -0.136200000000000     -0.021300000000000
C       3.907700000000000      0.397000000000000      0.018300000000000
H      -2.962000000000000      1.980500000000000     -0.052400000000000
H      -1.679700000000000     -1.576600000000000     -2.118700000000000
H      -1.690500000000000     -1.472300000000000      2.190000000000000
H      -0.652700000000000      2.274300000000000     -0.935200000000000
H      -0.659000000000000      2.317200000000000      0.826100000000000
H       0.573700000000000     -1.302900000000000     -1.269100000000000
H       0.119600000000000      0.145000000000000     -2.170800000000000
H       0.105400000000000      0.250800000000000      2.167600000000000
H       0.568200000000000     -1.238200000000000      1.345600000000000
H      -2.341600000000000      0.829600000000000     -2.180000000000000
H      -3.521900000000000     -0.119400000000000     -1.279200000000000
H      -2.351600000000000      0.934200000000000      2.131500000000000
H      -3.527900000000000     -0.057400000000000      1.272200000000000
H      -1.068500000000000     -2.627200000000000      0.063800000000000
H      -2.767900000000000     -2.163400000000000      0.048400000000000
H       1.706600000000000      1.555100000000000      0.822400000000000
H       2.410400000000000     -0.724300000000000     -0.940000000000000
H       2.380600000000000     -0.802200000000000      0.838300000000000
H       4.070700000000000      0.988200000000000      0.926700000000000
H       4.098800000000000      1.050400000000000     -0.841100000000000
H       5.809100000000000     -0.332500000000000     -0.017800000000000
H       4.749200000000000     -1.244300000000000     -0.856800000000000
