36

N      -1.562500000000000     -0.610200000000000     -0.178700000000000
N      -5.120700000000000      0.455100000000000      0.107200000000000
C       0.230600000000000      1.009400000000000      0.478900000000000
C       0.755000000000000     -0.928300000000000     -1.048300000000000
C       2.513900000000000      0.825600000000000     -0.586900000000000
C       1.840300000000000     -0.787400000000000      1.228500000000000
C      -0.342300000000000      0.072600000000000     -0.612000000000000
C       1.413200000000000      1.795600000000000     -0.122200000000000
C       0.745100000000000      0.193200000000000      1.682900000000000
C       1.935100000000000     -0.133200000000000     -1.642400000000000
C       1.267300000000000     -1.736800000000000      0.161700000000000
C       3.007400000000000      0.008500000000000      0.619200000000000
C      -2.712100000000000      0.273200000000000     -0.289100000000000
C      -3.970300000000000     -0.437200000000000      0.201200000000000
H      -0.520200000000000      1.728500000000000      0.822600000000000
H       0.366000000000000     -1.613500000000000     -1.811200000000000
H       3.348100000000000      1.390600000000000     -1.017400000000000
H       2.197500000000000     -1.367300000000000      2.086800000000000
H      -0.583400000000000      0.673200000000000     -1.501300000000000
H       1.818500000000000      2.490300000000000      0.624000000000000
H       1.068600000000000      2.404200000000000     -0.967200000000000
H      -0.079500000000000     -0.356000000000000      2.152700000000000
H       1.146100000000000      0.870600000000000      2.447100000000000
H       2.714600000000000     -0.823500000000000     -1.987600000000000
H       1.602600000000000      0.433300000000000     -2.521000000000000
H       0.457300000000000     -2.338100000000000      0.591300000000000
H       2.042000000000000     -2.442100000000000     -0.163800000000000
H       3.805500000000000     -0.676200000000000      0.306900000000000
H       3.439300000000000      0.677300000000000      1.373700000000000
H      -1.721000000000000     -1.432600000000000     -0.760700000000000
H      -2.856300000000000      0.583300000000000     -1.332100000000000
H      -2.567800000000000      1.179200000000000      0.309900000000000
H      -3.848000000000000     -0.758000000000000      1.242200000000000
H      -4.164400000000000     -1.330900000000000     -0.402400000000000
H      -4.968100000000000      1.275400000000000      0.692400000000000
H      -5.943600000000000     -0.014400000000000      0.483000000000000
