36

N      -1.310400000000000      0.637200000000000      0.163900000000000
N      -2.824500000000000      2.370000000000000      0.516700000000000
C       1.399300000000000     -0.210900000000000      0.366200000000000
C       0.234300000000000     -1.177200000000000      0.572400000000000
C       2.617000000000000     -0.646000000000000      1.192900000000000
C       1.758700000000000     -0.105000000000000     -1.121900000000000
C      -0.996200000000000     -0.741000000000000     -0.217100000000000
C       3.812900000000000      0.275000000000000      0.962400000000000
C       2.956200000000000      0.815000000000000     -1.348600000000000
C       4.161800000000000      0.384600000000000     -0.518700000000000
C      -2.155600000000000     -1.702400000000000      0.016300000000000
C      -3.386000000000000     -1.158500000000000     -0.682800000000000
C      -3.738500000000000      0.190200000000000     -0.090800000000000
C      -2.529100000000000      1.068700000000000      0.189000000000000
H       1.114100000000000      0.787800000000000      0.723200000000000
H       0.525200000000000     -2.191900000000000      0.272100000000000
H      -0.007600000000000     -1.220400000000000      1.642600000000000
H       2.898700000000000     -1.673800000000000      0.930600000000000
H       2.364000000000000     -0.648500000000000      2.259900000000000
H       0.932500000000000      0.308000000000000     -1.708000000000000
H       1.981700000000000     -1.099600000000000     -1.528200000000000
H      -0.780500000000000     -0.761700000000000     -1.290800000000000
H       4.679500000000000     -0.100800000000000      1.518100000000000
H       3.587100000000000      1.272400000000000      1.359200000000000
H       2.681200000000000      1.844100000000000     -1.085900000000000
H       3.223500000000000      0.817500000000000     -2.411400000000000
H       4.978000000000000      1.103200000000000     -0.653300000000000
H       4.526100000000000     -0.584800000000000     -0.880300000000000
H      -2.357800000000000     -1.818400000000000      1.088700000000000
H      -1.910100000000000     -2.695400000000000     -0.377500000000000
H      -4.228600000000000     -1.849700000000000     -0.573000000000000
H      -3.190600000000000     -1.055900000000000     -1.757200000000000
H      -4.255800000000000      0.047400000000000      0.866600000000000
H      -4.429100000000000      0.723100000000000     -0.754100000000000
H      -2.087900000000000      3.032300000000000      0.735200000000000
H      -3.779400000000000      2.710800000000000      0.555000000000000
