37

O       1.802300000000000     -0.288500000000000     -0.375800000000000
O       3.945400000000000     -0.851500000000000      0.267700000000000
C      -2.527500000000000     -1.902700000000000     -0.383800000000000
C      -3.412800000000000     -0.695600000000000     -0.047100000000000
C      -1.093800000000000     -1.756400000000000      0.081500000000000
C      -2.907500000000000      0.580900000000000     -0.660600000000000
C      -0.017000000000000     -1.764100000000000     -0.728300000000000
C      -0.914300000000000     -1.628900000000000      1.572700000000000
C      -2.628300000000000      1.745400000000000     -0.045000000000000
C       1.424300000000000     -1.658200000000000     -0.343700000000000
C      -2.135100000000000      2.925700000000000     -0.839000000000000
C      -2.749900000000000      1.999700000000000      1.430400000000000
C       3.342600000000000      1.470000000000000     -0.128400000000000
C       3.104900000000000     -0.019500000000000     -0.045200000000000
C       4.766600000000000      1.843400000000000      0.244800000000000
H      -2.958300000000000     -2.801800000000000      0.074300000000000
H      -2.552000000000000     -2.074700000000000     -1.468000000000000
H      -3.543600000000000     -0.624000000000000      1.035100000000000
H      -4.414600000000000     -0.884800000000000     -0.453400000000000
H      -2.780900000000000      0.535000000000000     -1.742000000000000
H      -0.195400000000000     -1.850500000000000     -1.799300000000000
H      -1.359700000000000     -2.494600000000000      2.074800000000000
H      -1.410000000000000     -0.727900000000000      1.945000000000000
H       0.121900000000000     -1.562900000000000      1.907900000000000
H       2.018300000000000     -2.213600000000000     -1.080200000000000
H       1.636600000000000     -2.097100000000000      0.635600000000000
H      -1.146700000000000      3.234700000000000     -0.483400000000000
H      -2.048000000000000      2.704000000000000     -1.908000000000000
H      -2.823800000000000      3.770100000000000     -0.730600000000000
H      -3.404100000000000      2.859900000000000      1.609000000000000
H      -3.165700000000000      1.162000000000000      1.992300000000000
H      -1.765300000000000      2.224400000000000      1.853900000000000
H       3.138100000000000      1.796400000000000     -1.153500000000000
H       2.646400000000000      1.970200000000000      0.553100000000000
H       5.487600000000000      1.361700000000000     -0.424100000000000
H       4.907100000000000      2.926500000000000      0.176700000000000
H       4.999500000000000      1.531500000000000      1.268400000000000
