37

O       1.028600000000000      0.461400000000000      0.124500000000000
O       3.254700000000000     -0.145000000000000      0.151600000000000
C       0.657700000000000     -0.897600000000000      0.415600000000000
C      -0.888900000000000     -0.941900000000000      0.461200000000000
C      -1.592600000000000     -0.366700000000000     -0.772700000000000
C       1.260200000000000     -1.201000000000000      1.793000000000000
C       1.190800000000000     -1.751700000000000     -0.716200000000000
C      -3.086500000000000     -0.390200000000000     -0.600600000000000
C      -3.865500000000000      0.568100000000000     -0.064000000000000
C       2.368800000000000      0.688300000000000      0.020900000000000
C       2.587500000000000      2.151400000000000     -0.285500000000000
C       1.643300000000000     -3.009600000000000     -0.644700000000000
C      -5.358800000000000      0.484300000000000      0.080300000000000
C      -3.261300000000000      1.852900000000000      0.436000000000000
C       4.061900000000000      2.497400000000000     -0.399500000000000
H      -1.223200000000000     -1.974600000000000      0.631100000000000
H      -1.217600000000000     -0.363200000000000      1.336100000000000
H      -1.351000000000000     -0.967800000000000     -1.657700000000000
H      -1.240300000000000      0.643900000000000     -1.002200000000000
H       1.117500000000000     -0.360100000000000      2.482400000000000
H       0.771100000000000     -2.077000000000000      2.236800000000000
H       2.328900000000000     -1.432900000000000      1.783900000000000
H       1.157400000000000     -1.306900000000000     -1.710700000000000
H      -3.570800000000000     -1.304500000000000     -0.940400000000000
H       2.085400000000000      2.386500000000000     -1.229900000000000
H       2.137900000000000      2.744900000000000      0.517700000000000
H       1.977700000000000     -3.523600000000000     -1.539400000000000
H       1.684600000000000     -3.549200000000000      0.294300000000000
H      -5.841500000000000      1.300300000000000     -0.466900000000000
H      -5.645200000000000      0.551000000000000      1.134700000000000
H      -5.749400000000000     -0.459900000000000     -0.313500000000000
H      -3.609500000000000      2.053700000000000      1.455600000000000
H      -2.170200000000000      1.858700000000000      0.477700000000000
H      -3.577200000000000      2.686200000000000     -0.200600000000000
H       4.539700000000000      1.922800000000000     -1.200100000000000
H       4.187900000000000      3.561800000000000     -0.620000000000000
H       4.591000000000000      2.275400000000000      0.533200000000000
