37

O      -1.306100000000000      0.553400000000000     -0.222000000000000
O      -2.579200000000000     -1.365800000000000     -0.361000000000000
C       1.156600000000000      0.681900000000000     -0.442000000000000
C       2.270500000000000     -0.380300000000000     -0.194500000000000
C       1.553600000000000     -0.889800000000000      1.084300000000000
C      -0.132500000000000     -0.192800000000000     -0.493200000000000
C       1.138300000000000      1.477400000000000      0.894100000000000
C       0.132800000000000     -1.254600000000000      0.590200000000000
C       1.400500000000000      0.384700000000000      1.944300000000000
C       1.315200000000000      1.581800000000000     -1.653100000000000
C       3.682200000000000      0.186300000000000      0.059400000000000
C       2.430700000000000     -1.448700000000000     -1.294500000000000
C      -2.477800000000000     -0.159900000000000     -0.182800000000000
C      -3.625600000000000      0.775900000000000      0.115800000000000
C      -4.959300000000000      0.050500000000000      0.154900000000000
H       2.050000000000000     -1.708400000000000      1.610900000000000
H      -0.244000000000000     -0.656600000000000     -1.481200000000000
H       0.190400000000000      1.993300000000000      1.077400000000000
H       1.922900000000000      2.241600000000000      0.927800000000000
H       0.128200000000000     -2.259400000000000      0.153700000000000
H      -0.590500000000000     -1.247400000000000      1.412400000000000
H       2.313200000000000      0.599100000000000      2.510100000000000
H       0.579300000000000      0.309200000000000      2.664800000000000
H       2.241900000000000      2.162400000000000     -1.599900000000000
H       1.337800000000000      1.000600000000000     -2.580500000000000
H       0.483200000000000      2.290500000000000     -1.724700000000000
H       4.104200000000000      0.599200000000000     -0.864000000000000
H       3.726400000000000      0.981700000000000      0.806000000000000
H       4.353900000000000     -0.607800000000000      0.405900000000000
H       1.504500000000000     -1.948200000000000     -1.585300000000000
H       2.849200000000000     -1.005400000000000     -2.205300000000000
H       3.117800000000000     -2.235700000000000     -0.962200000000000
H      -3.441000000000000      1.250500000000000      1.085300000000000
H      -3.654800000000000      1.546700000000000     -0.661500000000000
H      -4.962500000000000     -0.725000000000000      0.928200000000000
H      -5.769500000000000      0.753400000000000      0.371600000000000
H      -5.172400000000000     -0.432700000000000     -0.804400000000000
