37

O       1.244600000000000      0.280200000000000     -0.025100000000000
O       3.310700000000000     -0.744200000000000      0.048400000000000
C      -0.906500000000000     -0.781800000000000      0.069200000000000
C       0.605700000000000     -0.993100000000000      0.079800000000000
C      -1.367400000000000     -0.146400000000000     -1.246400000000000
C      -1.344500000000000      0.085400000000000      1.260200000000000
C      -2.890400000000000      0.015200000000000     -1.279900000000000
C      -3.474100000000000      0.532900000000000      0.010800000000000
C      -2.759600000000000      0.572800000000000      1.148500000000000
C       1.044900000000000     -1.855300000000000     -1.103500000000000
C       1.051800000000000     -1.623500000000000      1.397600000000000
C      -4.898800000000000      0.998600000000000     -0.047800000000000
C       2.611700000000000      0.256800000000000     -0.028900000000000
C       3.127100000000000      1.672100000000000     -0.145400000000000
C       4.644700000000000      1.730400000000000     -0.137400000000000
H      -1.403200000000000     -1.759400000000000      0.160200000000000
H      -1.079200000000000     -0.747900000000000     -2.114700000000000
H      -0.903000000000000      0.840100000000000     -1.375100000000000
H      -0.701500000000000      0.965500000000000      1.379000000000000
H      -1.266800000000000     -0.496700000000000      2.186100000000000
H      -3.353400000000000     -0.954000000000000     -1.504100000000000
H      -3.148000000000000      0.692500000000000     -2.102900000000000
H      -3.207800000000000      0.971600000000000      2.054800000000000
H       2.012100000000000     -2.345600000000000     -0.956700000000000
H       0.334900000000000     -2.673200000000000     -1.275500000000000
H       1.130000000000000     -1.272100000000000     -2.027400000000000
H       1.100900000000000     -0.887900000000000      2.208900000000000
H       2.033700000000000     -2.103600000000000      1.353600000000000
H       0.360600000000000     -2.419600000000000      1.700200000000000
H      -4.998600000000000      1.828500000000000     -0.754900000000000
H      -5.260900000000000      1.344700000000000      0.926000000000000
H      -5.550900000000000      0.182300000000000     -0.374800000000000
H       2.751900000000000      2.101100000000000     -1.080400000000000
H       2.738000000000000      2.252600000000000      0.697800000000000
H       5.064200000000000      1.162000000000000     -0.974200000000000
H       4.986900000000000      2.766400000000000     -0.221400000000000
H       5.049300000000000      1.309800000000000      0.789100000000000
