37

O       4.139000000000000     -0.449100000000000      0.148900000000000
O      -1.571100000000000      2.316100000000000      0.483900000000000
C      -1.024900000000000     -1.316400000000000      0.204500000000000
C      -3.135700000000000      0.633700000000000     -0.233200000000000
C      -1.389500000000000     -0.945600000000000     -1.209700000000000
C      -2.795000000000000     -0.350900000000000     -1.350900000000000
C       0.186400000000000     -2.186200000000000      0.368000000000000
C       1.437600000000000     -1.540300000000000     -0.231300000000000
C      -2.935100000000000      0.013700000000000      1.153500000000000
C       1.761700000000000     -0.212600000000000      0.467600000000000
C       3.056400000000000      0.468400000000000     -0.020700000000000
C      -1.739200000000000     -0.888400000000000      1.259100000000000
C       2.986700000000000      0.868500000000000     -1.496100000000000
C       3.345300000000000      1.701400000000000      0.842100000000000
C      -2.322600000000000      1.887700000000000     -0.385700000000000
H      -4.182800000000000      0.946300000000000     -0.331400000000000
H      -0.663500000000000     -0.216400000000000     -1.588800000000000
H      -1.324700000000000     -1.829100000000000     -1.856200000000000
H      -2.886700000000000      0.127600000000000     -2.333700000000000
H      -3.527700000000000     -1.168700000000000     -1.332400000000000
H       0.368100000000000     -2.418300000000000      1.425000000000000
H       0.004900000000000     -3.146900000000000     -0.129500000000000
H       1.318200000000000     -1.397600000000000     -1.310000000000000
H       2.268400000000000     -2.243400000000000     -0.100400000000000
H      -3.817600000000000     -0.591600000000000      1.398300000000000
H      -2.872200000000000      0.787100000000000      1.928000000000000
H       0.932700000000000      0.495400000000000      0.351900000000000
H       1.858800000000000     -0.418900000000000      1.542300000000000
H      -1.452700000000000     -1.191000000000000      2.263000000000000
H       2.899000000000000     -0.004400000000000     -2.151100000000000
H       2.141900000000000      1.537200000000000     -1.690700000000000
H       3.907700000000000      1.379400000000000     -1.800700000000000
H       2.548500000000000      2.447700000000000      0.759600000000000
H       4.292000000000000      2.169000000000000      0.548000000000000
H       3.454900000000000      1.423200000000000      1.896500000000000
H      -2.450000000000000      2.431600000000000     -1.337600000000000
H       4.086700000000000     -1.122600000000000     -0.549700000000000
