37

O      -1.802200000000000      0.290900000000000      0.777300000000000
O      -2.731200000000000     -0.954100000000000     -0.984000000000000
C      -2.609300000000000      1.141500000000000     -0.042900000000000
C      -1.773900000000000     -0.963900000000000      0.083200000000000
C      -3.560300000000000      0.174800000000000     -0.705700000000000
C      -0.410700000000000     -1.202500000000000     -0.464600000000000
C       0.629500000000000     -1.814000000000000      0.134600000000000
C       1.980700000000000     -2.049400000000000     -0.507600000000000
C      -3.292400000000000      2.199700000000000      0.796600000000000
C       3.016200000000000     -0.963500000000000     -0.187000000000000
C       0.481800000000000     -2.354200000000000      1.534000000000000
C       2.648400000000000      0.374800000000000     -0.765900000000000
C       2.532100000000000      1.554000000000000     -0.126500000000000
C       2.158800000000000      2.798100000000000     -0.888300000000000
C       2.732600000000000      1.768000000000000      1.346800000000000
H      -1.949500000000000      1.608000000000000     -0.784600000000000
H      -2.083700000000000     -1.749000000000000      0.779500000000000
H      -4.361100000000000     -0.152000000000000     -0.032700000000000
H      -4.000200000000000      0.563800000000000     -1.627600000000000
H      -0.243400000000000     -0.820200000000000     -1.471300000000000
H       1.857300000000000     -2.123300000000000     -1.596600000000000
H       2.367000000000000     -3.026300000000000     -0.190400000000000
H      -3.894200000000000      1.745100000000000      1.591100000000000
H      -2.547100000000000      2.830800000000000      1.292200000000000
H      -3.939100000000000      2.835000000000000      0.184300000000000
H       3.181900000000000     -0.926100000000000      0.892300000000000
H       3.974000000000000     -1.262600000000000     -0.630900000000000
H      -0.392300000000000     -1.977900000000000      2.070500000000000
H       1.351700000000000     -2.072700000000000      2.137700000000000
H       0.425700000000000     -3.447300000000000      1.509300000000000
H       2.482000000000000      0.363000000000000     -1.842800000000000
H       2.017000000000000      2.607400000000000     -1.957200000000000
H       1.223200000000000      3.213600000000000     -0.499200000000000
H       2.944300000000000      3.554100000000000     -0.787500000000000
H       1.815900000000000      2.166200000000000      1.794700000000000
H       3.538100000000000      2.490900000000000      1.513900000000000
H       2.991700000000000      0.861100000000000      1.895300000000000
