37

O      -3.435900000000000     -0.227100000000000     -0.266400000000000
O      -2.142600000000000      1.459200000000000      0.631700000000000
C       2.717400000000000     -0.398900000000000      0.300000000000000
C       3.839800000000000     -1.412200000000000      0.037600000000000
C       2.990800000000000      0.921300000000000     -0.433200000000000
C       5.210200000000000     -0.839700000000000      0.392300000000000
C       4.362700000000000      1.489800000000000     -0.077900000000000
C       1.363800000000000     -0.974600000000000     -0.112100000000000
C       5.474700000000000      0.476800000000000     -0.331700000000000
C       0.233800000000000      0.007900000000000      0.179000000000000
C      -1.121900000000000     -0.585700000000000     -0.200200000000000
C      -2.261200000000000      0.356400000000000      0.116000000000000
C      -4.615300000000000      0.547900000000000     -0.028200000000000
C      -5.801400000000000     -0.226500000000000     -0.499000000000000
C      -6.815100000000000     -0.594700000000000      0.292000000000000
H       2.693000000000000     -0.193400000000000      1.379200000000000
H       3.836100000000000     -1.708700000000000     -1.019100000000000
H       3.666500000000000     -2.322800000000000      0.623500000000000
H       2.255600000000000      1.686600000000000     -0.167200000000000
H       2.928200000000000      0.771300000000000     -1.518400000000000
H       5.990200000000000     -1.564900000000000      0.134600000000000
H       5.269000000000000     -0.678900000000000      1.475800000000000
H       4.373200000000000      1.785700000000000      0.978400000000000
H       4.549700000000000      2.396100000000000     -0.665000000000000
H       1.368100000000000     -1.225200000000000     -1.180500000000000
H       1.184300000000000     -1.909900000000000      0.432800000000000
H       6.434300000000000      0.892100000000000     -0.003500000000000
H       5.558900000000000      0.290000000000000     -1.409300000000000
H       0.352800000000000      0.933200000000000     -0.393400000000000
H       0.237800000000000      0.281000000000000      1.241400000000000
H      -1.287600000000000     -1.515500000000000      0.355600000000000
H      -1.143600000000000     -0.802200000000000     -1.274200000000000
H      -4.688100000000000      0.779200000000000      1.041000000000000
H      -4.553300000000000      1.485300000000000     -0.592700000000000
H      -5.835200000000000     -0.498900000000000     -1.550500000000000
H      -7.650800000000000     -1.155700000000000     -0.111800000000000
H      -6.831000000000000     -0.346600000000000      1.347500000000000
