37

O      -1.233000000000000     -0.353300000000000      0.052200000000000
O      -2.727200000000000      1.402100000000000      0.150500000000000
C       1.126500000000000     -0.104700000000000      0.816000000000000
C       1.869000000000000     -0.714400000000000     -0.415700000000000
C       1.847500000000000      0.645800000000000     -1.158100000000000
C      -0.148800000000000      0.548100000000000      0.197700000000000
C       2.046100000000000      1.089400000000000      1.204100000000000
C       0.345900000000000      1.019100000000000     -1.183900000000000
C       2.528200000000000      1.610300000000000     -0.161000000000000
C       0.863000000000000     -1.044700000000000      1.977800000000000
C       1.137400000000000     -1.847300000000000     -1.161200000000000
C       3.287300000000000     -1.251600000000000     -0.126900000000000
C      -2.485200000000000      0.207700000000000      0.043800000000000
C      -3.521100000000000     -0.879800000000000     -0.118500000000000
C      -4.935600000000000     -0.326800000000000     -0.116900000000000
H       2.309400000000000      0.652400000000000     -2.148100000000000
H      -0.454100000000000      1.402300000000000      0.815700000000000
H       2.894300000000000      0.775600000000000      1.822400000000000
H       1.514800000000000      1.865700000000000      1.765900000000000
H       0.201300000000000      2.097600000000000     -1.311700000000000
H      -0.178100000000000      0.521000000000000     -2.006300000000000
H       2.238000000000000      2.653900000000000     -0.322800000000000
H       3.619600000000000      1.558700000000000     -0.234200000000000
H       0.251700000000000     -1.900000000000000      1.673700000000000
H       1.796700000000000     -1.435200000000000      2.395300000000000
H       0.332000000000000     -0.525000000000000      2.782600000000000
H       1.695300000000000     -2.131100000000000     -2.061500000000000
H       1.055900000000000     -2.738000000000000     -0.528300000000000
H       0.129300000000000     -1.601300000000000     -1.496400000000000
H       3.929200000000000     -0.568500000000000      0.432900000000000
H       3.237500000000000     -2.180600000000000      0.452800000000000
H       3.808600000000000     -1.473300000000000     -1.065500000000000
H      -3.333600000000000     -1.396900000000000     -1.065400000000000
H      -3.408600000000000     -1.590500000000000      0.707100000000000
H      -5.152800000000000      0.194600000000000      0.821300000000000
H      -5.080400000000000      0.384800000000000     -0.936600000000000
H      -5.661800000000000     -1.136900000000000     -0.234500000000000
