37

O      -2.416000000000000      0.597400000000000     -0.004200000000000
O      -2.743500000000000     -1.547100000000000      0.781500000000000
C       1.607500000000000      1.247600000000000     -0.629300000000000
C       2.587100000000000      0.734000000000000      0.434000000000000
C       0.634500000000000      2.286300000000000     -0.111500000000000
C       3.531400000000000     -0.305200000000000     -0.103900000000000
C      -0.566700000000000      2.011900000000000      0.433500000000000
C       1.079700000000000      3.717500000000000     -0.272700000000000
C       3.415200000000000     -1.645200000000000     -0.042900000000000
C      -1.176800000000000      0.670300000000000      0.688000000000000
C       4.479500000000000     -2.528300000000000     -0.638200000000000
C       2.267600000000000     -2.390800000000000      0.576400000000000
C      -4.391400000000000     -0.493800000000000     -0.662300000000000
C      -3.106500000000000     -0.579000000000000      0.127700000000000
C      -5.201500000000000     -1.775400000000000     -0.576100000000000
H       2.168400000000000      1.670100000000000     -1.473900000000000
H       1.054200000000000      0.403100000000000     -1.059200000000000
H       2.036600000000000      0.346100000000000      1.298400000000000
H       3.185400000000000      1.568900000000000      0.820800000000000
H       4.407000000000000      0.110000000000000     -0.602000000000000
H      -1.183200000000000      2.849400000000000      0.758400000000000
H       1.229800000000000      3.950800000000000     -1.331900000000000
H       2.023400000000000      3.882200000000000      0.257400000000000
H       0.349000000000000      4.430300000000000      0.123600000000000
H      -1.357300000000000      0.567500000000000      1.764500000000000
H      -0.528600000000000     -0.150000000000000      0.366700000000000
H       4.053400000000000     -3.156900000000000     -1.427100000000000
H       5.301200000000000     -1.954100000000000     -1.079000000000000
H       4.905900000000000     -3.178700000000000      0.132600000000000
H       2.618200000000000     -2.983800000000000      1.427300000000000
H       1.471000000000000     -1.733800000000000      0.933600000000000
H       1.819600000000000     -3.069900000000000     -0.156900000000000
H      -4.984800000000000      0.338300000000000     -0.269200000000000
H      -4.141300000000000     -0.293300000000000     -1.709500000000000
H      -5.472300000000000     -2.000400000000000      0.460900000000000
H      -6.123500000000000     -1.683600000000000     -1.158400000000000
H      -4.633500000000000     -2.626600000000000     -0.965900000000000
