37

O      -1.217600000000000     -0.858100000000000     -0.312600000000000
O      -2.126900000000000      0.958500000000000     -1.395100000000000
C       1.894600000000000      1.237900000000000      0.292700000000000
C       2.830100000000000      0.033500000000000      0.553000000000000
C       2.532800000000000     -1.182200000000000     -0.340700000000000
C       0.421600000000000      0.780800000000000      0.355300000000000
C       0.121900000000000     -0.425700000000000     -0.536000000000000
C       1.060300000000000     -1.590400000000000     -0.231900000000000
C       2.134600000000000      2.300900000000000      1.381700000000000
C       2.204500000000000      1.882200000000000     -1.072300000000000
C       3.442000000000000     -2.354100000000000      0.029900000000000
C      -2.191400000000000      0.062600000000000     -0.565200000000000
C      -3.359700000000000     -0.180900000000000      0.326200000000000
C      -3.337000000000000     -1.309200000000000      1.311300000000000
C      -4.409700000000000      0.644200000000000      0.203700000000000
H       2.734700000000000     -0.272700000000000      1.604200000000000
H       3.876100000000000      0.339000000000000      0.418000000000000
H       2.746500000000000     -0.919500000000000     -1.384000000000000
H      -0.226500000000000      1.629100000000000      0.105200000000000
H       0.159800000000000      0.520300000000000      1.391100000000000
H       0.225900000000000     -0.160600000000000     -1.595400000000000
H       0.843600000000000     -2.419900000000000     -0.917200000000000
H       0.846100000000000     -1.978800000000000      0.773200000000000
H       1.487900000000000      3.173100000000000      1.233300000000000
H       1.927700000000000      1.900800000000000      2.380800000000000
H       3.173600000000000      2.649100000000000      1.372400000000000
H       1.560800000000000      2.751400000000000     -1.250000000000000
H       3.243900000000000      2.227000000000000     -1.115500000000000
H       2.055500000000000      1.191600000000000     -1.907000000000000
H       3.278700000000000     -2.674700000000000      1.064300000000000
H       3.254500000000000     -3.212300000000000     -0.624000000000000
H       4.495800000000000     -2.076000000000000     -0.076400000000000
H      -3.218900000000000     -2.267700000000000      0.795500000000000
H      -2.509400000000000     -1.185800000000000      2.017600000000000
H      -4.262400000000000     -1.361500000000000      1.895000000000000
H      -5.291100000000000      0.518800000000000      0.824800000000000
H      -4.431300000000000      1.463000000000000     -0.507800000000000
