38

O       4.466700000000000     -1.133200000000000      0.172700000000000
N       1.311700000000000      0.645600000000000     -0.540400000000000
C      -0.084700000000000      0.319400000000000     -0.256700000000000
C      -1.940000000000000     -1.343800000000000     -0.682900000000000
C      -1.773400000000000     -0.191600000000000      1.553700000000000
C      -2.474300000000000      1.112700000000000     -0.487300000000000
C      -0.467000000000000     -0.997500000000000     -0.967100000000000
C      -0.300700000000000      0.151400000000000      1.263300000000000
C      -1.000100000000000      1.452800000000000     -0.772300000000000
C      -2.139400000000000     -1.501100000000000      0.834200000000000
C      -2.836200000000000     -0.203800000000000     -1.195800000000000
C      -2.670400000000000      0.942300000000000      1.028900000000000
C       2.194600000000000     -0.406500000000000     -0.060700000000000
C       3.658900000000000     -0.061600000000000     -0.309600000000000
C       4.054400000000000      1.214900000000000      0.419900000000000
H      -2.205600000000000     -2.278400000000000     -1.189900000000000
H      -1.920800000000000     -0.308800000000000      2.633200000000000
H      -3.117600000000000      1.919900000000000     -0.855100000000000
H       0.118700000000000     -1.855600000000000     -0.622000000000000
H      -0.310400000000000     -0.914200000000000     -2.050700000000000
H      -0.021300000000000      1.069300000000000      1.797000000000000
H       0.287500000000000     -0.663800000000000      1.695400000000000
H      -0.860600000000000      1.599400000000000     -1.851600000000000
H      -0.741700000000000      2.404100000000000     -0.288600000000000
H      -3.182000000000000     -1.766400000000000      1.048700000000000
H      -1.518500000000000     -2.323000000000000      1.211300000000000
H      -2.715100000000000     -0.091100000000000     -2.280200000000000
H      -3.890700000000000     -0.447300000000000     -1.016800000000000
H      -3.722000000000000      0.719200000000000      1.247400000000000
H      -2.429900000000000      1.879600000000000      1.545400000000000
H       1.444800000000000      0.774600000000000     -1.543100000000000
H       2.028600000000000     -1.362700000000000     -0.565700000000000
H       2.105000000000000     -0.592000000000000      1.012700000000000
H       3.857800000000000      0.044000000000000     -1.381700000000000
H       3.525300000000000      2.091200000000000      0.033900000000000
H       3.861500000000000      1.133600000000000      1.495600000000000
H       5.130200000000000      1.392500000000000      0.311000000000000
H       4.322800000000000     -1.212600000000000      1.131200000000000
