38

O       5.053600000000000     -0.676600000000000     -0.281400000000000
N       2.982000000000000      0.034500000000000      0.564100000000000
C       1.839600000000000     -0.249500000000000     -0.316900000000000
C       0.896400000000000     -1.218300000000000      0.419100000000000
C       1.216700000000000      1.091300000000000     -0.753400000000000
C      -0.359700000000000     -1.577900000000000     -0.380900000000000
C       0.606100000000000      1.929600000000000      0.381600000000000
C      -1.465300000000000     -2.146700000000000      0.512000000000000
C      -0.604200000000000      2.772700000000000     -0.048700000000000
C      -2.841500000000000     -2.173900000000000     -0.158600000000000
C      -1.865100000000000      1.977900000000000     -0.431100000000000
C      -3.401500000000000     -0.845200000000000     -0.696300000000000
C      -2.431400000000000      1.135000000000000      0.718100000000000
C      -3.639200000000000      0.269000000000000      0.334100000000000
C       4.013600000000000     -0.321900000000000      0.138300000000000
H       2.164300000000000     -0.756800000000000     -1.240000000000000
H       0.619200000000000     -0.795700000000000      1.391700000000000
H       1.439100000000000     -2.143800000000000      0.653500000000000
H       0.481000000000000      0.901400000000000     -1.539800000000000
H       1.992200000000000      1.699400000000000     -1.239200000000000
H      -0.104700000000000     -2.302200000000000     -1.163800000000000
H      -0.733500000000000     -0.695700000000000     -0.894000000000000
H       1.382400000000000      2.613100000000000      0.750100000000000
H       0.332600000000000      1.318500000000000      1.243600000000000
H      -1.539300000000000     -1.588800000000000      1.450900000000000
H      -1.193000000000000     -3.170300000000000      0.799000000000000
H      -0.315500000000000      3.403500000000000     -0.898500000000000
H      -0.858500000000000      3.455300000000000      0.771800000000000
H      -3.561500000000000     -2.590800000000000      0.557000000000000
H      -2.802300000000000     -2.883600000000000     -0.995100000000000
H      -1.652200000000000      1.358300000000000     -1.305000000000000
H      -2.634800000000000      2.692000000000000     -0.750500000000000
H      -4.381300000000000     -1.085300000000000     -1.132200000000000
H      -2.802400000000000     -0.486900000000000     -1.537800000000000
H      -2.746400000000000      1.817700000000000      1.517900000000000
H      -1.656600000000000      0.507700000000000      1.154800000000000
H      -4.412500000000000      0.938100000000000     -0.065500000000000
H      -4.061400000000000     -0.172200000000000      1.245400000000000
