38

O       0.543900000000000     -1.744900000000000     -1.146300000000000
N      -0.755400000000000     -0.433400000000000      0.271700000000000
C      -2.051400000000000     -0.937200000000000     -0.125100000000000
C       1.626400000000000     -0.178000000000000      0.294200000000000
C      -3.032700000000000     -0.920200000000000      1.051700000000000
C      -2.604400000000000     -0.154400000000000     -1.320800000000000
C       2.836800000000000     -1.114300000000000      0.292500000000000
C       1.905800000000000      1.099800000000000     -0.500200000000000
C      -3.471300000000000      0.495200000000000      1.427200000000000
C      -3.043700000000000      1.259900000000000     -0.941400000000000
C       4.098300000000000     -0.406300000000000      0.779200000000000
C       3.169600000000000      1.802700000000000     -0.011700000000000
C      -4.028200000000000      1.250100000000000      0.224000000000000
C       4.373300000000000      0.865300000000000     -0.017900000000000
C       0.432900000000000     -0.884300000000000     -0.277000000000000
H      -1.910600000000000     -1.979500000000000     -0.437700000000000
H       1.415100000000000      0.094000000000000      1.337500000000000
H      -2.585600000000000     -1.406200000000000      1.927300000000000
H      -3.921800000000000     -1.504900000000000      0.782900000000000
H      -3.469200000000000     -0.693000000000000     -1.729100000000000
H      -1.858900000000000     -0.099100000000000     -2.123100000000000
H       3.022500000000000     -1.501600000000000     -0.718000000000000
H       2.638100000000000     -1.987100000000000      0.926700000000000
H       1.054500000000000      1.787400000000000     -0.422600000000000
H       2.011600000000000      0.862100000000000     -1.567000000000000
H      -2.627300000000000      1.051600000000000      1.851200000000000
H      -4.236200000000000      0.443100000000000      2.210600000000000
H      -3.506500000000000      1.744600000000000     -1.808500000000000
H      -2.165700000000000      1.860600000000000     -0.674100000000000
H       4.955700000000000     -1.084100000000000      0.699500000000000
H       3.988100000000000     -0.154500000000000      1.841200000000000
H       3.006400000000000      2.180600000000000      1.005100000000000
H       3.376300000000000      2.672100000000000     -0.646000000000000
H      -4.966900000000000      0.781800000000000     -0.096800000000000
H      -4.268300000000000      2.279500000000000      0.513000000000000
H       5.244900000000000      1.381400000000000      0.400200000000000
H       4.624100000000000      0.600300000000000     -1.052400000000000
H      -0.725800000000000      0.335400000000000      0.934700000000000
