38

O       2.520900000000000     -2.173700000000000      1.046100000000000
N       1.808800000000000     -1.295200000000000      0.228900000000000
C      -1.856600000000000      1.676000000000000      1.279300000000000
C      -0.756900000000000      1.890000000000000      0.260300000000000
C      -2.830600000000000      0.548800000000000      0.912500000000000
C       1.708000000000000      2.004600000000000     -0.427600000000000
C       0.560600000000000      1.764800000000000      0.514000000000000
C       2.117800000000000      0.743700000000000     -1.189700000000000
C      -1.223200000000000      2.317700000000000     -1.107600000000000
C      -2.144600000000000     -0.780600000000000      0.760900000000000
C      -2.179800000000000     -1.619500000000000     -0.291600000000000
C       2.578800000000000     -0.374400000000000     -0.265800000000000
C       4.041200000000000     -0.407000000000000      0.107200000000000
C      -1.422700000000000     -2.920500000000000     -0.252300000000000
C      -2.921600000000000     -1.374700000000000     -1.574500000000000
H      -2.418500000000000      2.611200000000000      1.395400000000000
H      -1.417000000000000      1.464200000000000      2.262900000000000
H      -3.405800000000000      0.832300000000000      0.027900000000000
H      -3.563200000000000      0.453900000000000      1.724100000000000
H       2.557600000000000      2.357800000000000      0.171200000000000
H       1.497500000000000      2.816900000000000     -1.129700000000000
H       0.851900000000000      1.458700000000000      1.518000000000000
H       1.274500000000000      0.366500000000000     -1.780700000000000
H       2.924900000000000      0.977100000000000     -1.892600000000000
H      -1.826100000000000      3.228700000000000     -1.025800000000000
H      -1.843100000000000      1.539500000000000     -1.562200000000000
H      -0.425400000000000      2.526200000000000     -1.822000000000000
H      -1.569600000000000     -1.086400000000000      1.634700000000000
H       4.502000000000000     -1.334000000000000     -0.246500000000000
H       4.569300000000000      0.430800000000000     -0.357100000000000
H       4.159800000000000     -0.315300000000000      1.190900000000000
H      -0.886600000000000     -3.064300000000000      0.691700000000000
H      -2.111000000000000     -3.763300000000000     -0.374100000000000
H      -0.685100000000000     -2.953900000000000     -1.060800000000000
H      -3.513900000000000     -0.458400000000000     -1.576400000000000
H      -2.215200000000000     -1.311800000000000     -2.409000000000000
H      -3.612000000000000     -2.202000000000000     -1.771300000000000
H       1.821500000000000     -2.785700000000000      1.331000000000000
