38

O      -0.520600000000000     -2.298300000000000      0.387200000000000
N       1.052900000000000     -0.745800000000000     -0.327900000000000
C      -1.346000000000000     -0.187300000000000     -0.276600000000000
C       2.442400000000000      1.264800000000000      0.042800000000000
C      -2.625900000000000     -0.921500000000000     -0.682600000000000
C      -1.561600000000000      0.662000000000000      0.978100000000000
C       1.413500000000000      0.573600000000000     -0.863300000000000
C       3.658100000000000      0.353400000000000      0.272700000000000
C       2.183700000000000     -1.651900000000000     -0.121100000000000
C      -0.242500000000000     -1.175400000000000     -0.041600000000000
C       3.225900000000000     -1.017000000000000      0.794100000000000
C      -3.801200000000000      0.039400000000000     -0.841000000000000
C      -2.739600000000000      1.619000000000000      0.816000000000000
C      -4.013100000000000      0.881300000000000      0.413700000000000
C       2.874200000000000      2.603600000000000     -0.550100000000000
H      -1.126300000000000      0.453600000000000     -1.133000000000000
H       1.972700000000000      1.457500000000000      1.016800000000000
H      -2.895900000000000     -1.674100000000000      0.069900000000000
H      -2.467700000000000     -1.465900000000000     -1.621900000000000
H      -0.658700000000000      1.237500000000000      1.212500000000000
H      -1.741600000000000      0.010400000000000      1.843500000000000
H       0.565400000000000      1.245300000000000     -0.977000000000000
H       1.827800000000000      0.408300000000000     -1.865700000000000
H       4.345800000000000      0.816500000000000      0.990000000000000
H       4.212800000000000      0.224800000000000     -0.665600000000000
H       2.616200000000000     -1.866600000000000     -1.105500000000000
H       1.849500000000000     -2.603400000000000      0.304200000000000
H       4.097700000000000     -1.674800000000000      0.879500000000000
H       2.805500000000000     -0.901700000000000      1.801000000000000
H      -4.712900000000000     -0.526700000000000     -1.063000000000000
H      -3.619700000000000      0.700200000000000     -1.697700000000000
H      -2.496300000000000      2.370100000000000      0.054300000000000
H      -2.907500000000000      2.159000000000000      1.754600000000000
H      -4.819000000000000      1.603700000000000      0.241400000000000
H      -4.335200000000000      0.233100000000000      1.238000000000000
H       3.590100000000000      3.106700000000000      0.108200000000000
H       3.348200000000000      2.471800000000000     -1.528500000000000
H       2.012800000000000      3.267700000000000     -0.677800000000000
