38

O       3.645200000000000      1.560000000000000      0.415600000000000
N       2.383000000000000      1.473600000000000     -0.159900000000000
C       0.478300000000000      0.057600000000000     -0.773700000000000
C       1.897700000000000      0.265800000000000     -0.150000000000000
C      -0.478500000000000     -0.431100000000000      0.349000000000000
C       2.612900000000000     -0.966400000000000      0.445500000000000
C       0.579700000000000     -0.953400000000000     -1.931100000000000
C      -0.044300000000000      1.387000000000000     -1.367400000000000
C      -1.901600000000000     -0.684300000000000     -0.080000000000000
C       3.896400000000000     -1.309200000000000     -0.305500000000000
C       2.832800000000000     -0.839800000000000      1.950700000000000
C      -3.026300000000000     -0.073000000000000      0.347500000000000
C      -3.042600000000000      1.054700000000000      1.346100000000000
C      -4.311100000000000     -0.513500000000000     -0.195300000000000
C      -5.521600000000000     -0.028100000000000      0.108600000000000
H      -0.116900000000000     -1.382500000000000      0.758600000000000
H      -0.421100000000000      0.266400000000000      1.190000000000000
H       1.950000000000000     -1.826600000000000      0.307800000000000
H       1.391300000000000     -0.681200000000000     -2.616000000000000
H      -0.344800000000000     -0.995400000000000     -2.517500000000000
H       0.783900000000000     -1.967300000000000     -1.572500000000000
H      -0.169900000000000      2.148200000000000     -0.588600000000000
H      -1.012900000000000      1.258500000000000     -1.863000000000000
H       0.648500000000000      1.788800000000000     -2.116400000000000
H      -2.000400000000000     -1.495000000000000     -0.802300000000000
H       3.727500000000000     -1.314200000000000     -1.387500000000000
H       4.253900000000000     -2.303000000000000     -0.015000000000000
H       4.703500000000000     -0.600600000000000     -0.098900000000000
H       1.919000000000000     -0.506400000000000      2.453600000000000
H       3.118400000000000     -1.808000000000000      2.376100000000000
H       3.626700000000000     -0.129600000000000      2.199000000000000
H      -3.580500000000000      0.755500000000000      2.252400000000000
H      -2.049700000000000      1.383700000000000      1.657500000000000
H      -3.535100000000000      1.936700000000000      0.921200000000000
H      -4.278600000000000     -1.321900000000000     -0.924400000000000
H       3.840400000000000      2.507500000000000      0.320900000000000
H      -6.405300000000000     -0.442700000000000     -0.366200000000000
H      -5.674900000000000      0.774100000000000      0.821000000000000
