38

O      -5.188800000000000     -0.384200000000000      0.010500000000000
N      -4.382900000000000      0.594700000000000      0.593600000000000
C       1.962200000000000     -0.328000000000000      0.319000000000000
C      -0.483500000000000     -0.384000000000000     -0.300000000000000
C       0.739300000000000     -1.213700000000000      0.087500000000000
C       3.185700000000000     -1.178600000000000      0.685900000000000
C       2.247700000000000      0.535500000000000     -0.917100000000000
C      -0.849600000000000      0.597400000000000      0.827000000000000
C      -1.674900000000000     -1.300000000000000     -0.630300000000000
C       4.434600000000000     -0.319600000000000      0.870300000000000
C       3.498300000000000      1.391600000000000     -0.730000000000000
C       4.710300000000000      0.543700000000000     -0.356900000000000
C      -2.077900000000000      1.430800000000000      0.476500000000000
C      -2.916400000000000     -0.499000000000000     -1.007000000000000
C      -3.203900000000000      0.513400000000000      0.071100000000000
H       1.786200000000000      0.332800000000000      1.175700000000000
H      -0.288800000000000      0.180900000000000     -1.217800000000000
H       0.528700000000000     -1.796900000000000      0.993100000000000
H       0.953800000000000     -1.939200000000000     -0.707900000000000
H       3.373500000000000     -1.921700000000000     -0.099800000000000
H       2.991100000000000     -1.736100000000000      1.609900000000000
H       1.430800000000000      1.232700000000000     -1.123500000000000
H       2.369700000000000     -0.099800000000000     -1.803400000000000
H      -0.037600000000000      1.300700000000000      1.031800000000000
H      -1.040500000000000      0.040600000000000      1.753700000000000
H      -1.902400000000000     -1.936000000000000      0.235000000000000
H      -1.411800000000000     -1.967800000000000     -1.459400000000000
H       5.298500000000000     -0.963900000000000      1.068900000000000
H       4.307900000000000      0.324600000000000      1.749200000000000
H       3.317700000000000      2.135400000000000      0.056000000000000
H       3.707200000000000      1.946100000000000     -1.652000000000000
H       5.570800000000000      1.194400000000000     -0.164600000000000
H       4.979100000000000     -0.100500000000000     -1.203100000000000
H      -1.863300000000000      2.100300000000000     -0.363600000000000
H      -2.384000000000000      2.042200000000000      1.331500000000000
H      -3.712900000000000     -1.207200000000000     -1.238600000000000
H      -2.724600000000000      0.062400000000000     -1.930100000000000
H      -6.035000000000000     -0.238000000000000      0.465900000000000
