38

O       3.645200000000000      1.560100000000000      0.415300000000000
N       2.383000000000000      1.473600000000000     -0.160200000000000
C       0.478300000000000      0.057400000000000     -0.773700000000000
C       1.897700000000000      0.265800000000000     -0.150000000000000
C      -0.478500000000000     -0.431100000000000      0.349100000000000
C       2.612900000000000     -0.966300000000000      0.445600000000000
C       0.579700000000000     -0.953700000000000     -1.931000000000000
C      -0.044300000000000      1.386800000000000     -1.367700000000000
C      -1.901600000000000     -0.684300000000000     -0.079900000000000
C       3.896400000000000     -1.309200000000000     -0.305300000000000
C       2.832800000000000     -0.839400000000000      1.950900000000000
C      -3.026200000000000     -0.073000000000000      0.347500000000000
C      -3.042600000000000      1.054900000000000      1.345900000000000
C      -4.311100000000000     -0.513500000000000     -0.195200000000000
C      -5.521600000000000     -0.028100000000000      0.108600000000000
H      -0.116900000000000     -1.382300000000000      0.758800000000000
H      -0.421100000000000      0.266700000000000      1.189900000000000
H       1.950000000000000     -1.826500000000000      0.308200000000000
H       1.391300000000000     -0.681700000000000     -2.615900000000000
H      -0.344700000000000     -0.995800000000000     -2.517400000000000
H       0.783900000000000     -1.967600000000000     -1.572200000000000
H      -0.169900000000000      2.148100000000000     -0.589000000000000
H      -1.012900000000000      1.258100000000000     -1.863300000000000
H       0.648500000000000      1.788400000000000     -2.116600000000000
H      -2.000400000000000     -1.495100000000000     -0.802000000000000
H       3.727400000000000     -1.314400000000000     -1.387100000000000
H       4.253900000000000     -2.303000000000000     -0.014600000000000
H       4.703500000000000     -0.600600000000000     -0.098800000000000
H       1.919000000000000     -0.505900000000000      2.453700000000000
H       3.118500000000000     -1.807500000000000      2.376500000000000
H       3.626700000000000     -0.129200000000000      2.199000000000000
H      -3.580500000000000      0.756000000000000      2.252300000000000
H      -2.049700000000000      1.384000000000000      1.657200000000000
H      -3.535200000000000      1.936900000000000      0.920900000000000
H      -4.278600000000000     -1.322100000000000     -0.924100000000000
H       3.840500000000000      2.507600000000000      0.320400000000000
H      -6.405300000000000     -0.442800000000000     -0.366200000000000
H      -5.674900000000000      0.774300000000000      0.820900000000000
