38

O      -0.292200000000000      2.224900000000000     -0.270600000000000
N       1.175100000000000      0.456600000000000      0.099900000000000
C      -1.270600000000000      0.124600000000000      0.180200000000000
C       1.428600000000000     -0.924400000000000      0.569900000000000
C      -2.440700000000000      0.906900000000000      0.780800000000000
C      -1.655200000000000     -0.523300000000000     -1.151800000000000
C       2.524700000000000     -1.604100000000000     -0.265200000000000
C      -0.094000000000000      1.034000000000000     -0.014600000000000
C       2.356800000000000      1.305500000000000     -0.093500000000000
C      -3.691300000000000      0.041100000000000      0.909400000000000
C      -2.907700000000000     -1.385600000000000     -1.019000000000000
C      -4.071400000000000     -0.599900000000000     -0.422000000000000
C       3.777100000000000     -0.745700000000000     -0.413000000000000
C       3.413500000000000      0.630100000000000     -0.958400000000000
C       1.747400000000000     -0.940700000000000      2.067700000000000
H      -1.056300000000000     -0.647400000000000      0.922600000000000
H       0.546000000000000     -1.548400000000000      0.424200000000000
H      -2.686900000000000      1.776000000000000      0.156700000000000
H      -2.164800000000000      1.301700000000000      1.766600000000000
H      -0.830700000000000     -1.137900000000000     -1.532100000000000
H      -1.830200000000000      0.253600000000000     -1.907900000000000
H       2.125500000000000     -1.804700000000000     -1.268500000000000
H       2.788500000000000     -2.576400000000000      0.167000000000000
H       2.762000000000000      1.536200000000000      0.898400000000000
H       2.072700000000000      2.259300000000000     -0.550100000000000
H      -4.525100000000000      0.650100000000000      1.276500000000000
H      -3.516900000000000     -0.743600000000000      1.655800000000000
H      -2.687500000000000     -2.252000000000000     -0.383100000000000
H      -3.192500000000000     -1.775700000000000     -2.002600000000000
H       4.483900000000000     -1.237100000000000     -1.090900000000000
H       4.282000000000000     -0.642800000000000      0.554400000000000
H      -4.930600000000000     -1.264800000000000     -0.279200000000000
H      -4.384400000000000      0.180500000000000     -1.126600000000000
H       4.309100000000000      1.258800000000000     -1.011000000000000
H       3.032500000000000      0.523500000000000     -1.981800000000000
H       2.655000000000000     -0.376900000000000      2.303400000000000
H       0.927100000000000     -0.495300000000000      2.640900000000000
H       1.887500000000000     -1.967200000000000      2.422300000000000
