38

O       5.818500000000000      0.135400000000000      0.024600000000000
N       2.138500000000000      0.048000000000000     -0.026400000000000
C      -0.257500000000000     -0.491800000000000      0.003900000000000
C      -1.920100000000000      0.978100000000000      1.228500000000000
C      -1.954700000000000      0.876300000000000     -1.289300000000000
C      -2.715100000000000     -1.109900000000000      0.062600000000000
C      -0.483400000000000      0.427500000000000      1.227700000000000
C      -0.517800000000000      0.326000000000000     -1.283300000000000
C      -1.276100000000000     -1.654800000000000      0.064700000000000
C      -2.155500000000000      1.780600000000000     -0.061900000000000
C      -2.912000000000000     -0.195800000000000      1.283200000000000
C      -2.946400000000000     -0.297000000000000     -1.222000000000000
C       1.172800000000000     -1.037700000000000      0.006400000000000
C       3.503300000000000     -0.464100000000000     -0.014100000000000
C       4.505400000000000      0.679200000000000     -0.004600000000000
H      -2.067200000000000      1.626600000000000      2.099400000000000
H      -2.126500000000000      1.452600000000000     -2.205500000000000
H      -3.425600000000000     -1.942900000000000      0.106000000000000
H       0.214100000000000      1.274300000000000      1.225000000000000
H      -0.301900000000000     -0.127000000000000      2.157600000000000
H      -0.358200000000000     -0.299600000000000     -2.171000000000000
H       0.162100000000000      1.180700000000000     -1.370900000000000
H      -1.112100000000000     -2.256600000000000      0.967900000000000
H      -1.136000000000000     -2.327400000000000     -0.791500000000000
H      -3.171000000000000      2.195300000000000     -0.064700000000000
H      -1.464500000000000      2.631400000000000     -0.105600000000000
H      -2.765000000000000     -0.767800000000000      2.207500000000000
H      -3.940800000000000      0.184200000000000      1.304300000000000
H      -3.975800000000000      0.081200000000000     -1.245400000000000
H      -2.824100000000000     -0.941900000000000     -2.100800000000000
H       1.317200000000000     -1.697800000000000     -0.858600000000000
H       1.327400000000000     -1.644600000000000      0.907700000000000
H       2.016500000000000      0.612500000000000     -0.864600000000000
H       3.686800000000000     -1.101600000000000     -0.888200000000000
H       3.673600000000000     -1.090000000000000      0.870900000000000
H       4.380000000000000      1.308900000000000      0.882100000000000
H       4.410500000000000      1.311400000000000     -0.893800000000000
H       5.935300000000000     -0.394100000000000     -0.782600000000000
