39

N       4.306800000000000     -0.277800000000000      0.023400000000000
N       6.128200000000000      0.809800000000000      0.629700000000000
C      -2.036600000000000     -0.581500000000000      0.053900000000000
C      -0.705000000000000      0.167200000000000     -0.036900000000000
C      -3.261100000000000      0.330500000000000     -0.077200000000000
C       0.479900000000000     -0.795700000000000      0.078100000000000
C      -4.591100000000000     -0.419200000000000      0.036200000000000
C       1.812900000000000     -0.044400000000000      0.019300000000000
C      -5.815300000000000      0.493100000000000     -0.093700000000000
C       3.027700000000000     -0.968300000000000      0.136800000000000
C      -7.145000000000000     -0.239100000000000      0.092200000000000
C      -8.324999999999999      0.709300000000000     -0.057300000000000
C       4.990200000000000     -0.057300000000000     -1.128300000000000
C       5.015000000000000      0.253300000000000      1.053300000000000
C       6.118500000000000      0.620100000000000     -0.729500000000000
H      -2.076500000000000     -1.345700000000000     -0.732200000000000
H      -2.087200000000000     -1.111700000000000      1.013100000000000
H      -0.652800000000000      0.916400000000000      0.762300000000000
H      -0.651200000000000      0.706000000000000     -0.990400000000000
H      -3.217100000000000      1.103700000000000      0.699700000000000
H      -3.221000000000000      0.849100000000000     -1.043000000000000
H       0.415900000000000     -1.349500000000000      1.022500000000000
H       0.438000000000000     -1.532100000000000     -0.733400000000000
H      -4.629000000000000     -0.934800000000000      1.003800000000000
H      -4.637400000000000     -1.194900000000000     -0.738000000000000
H       1.848600000000000      0.702600000000000      0.822500000000000
H       1.872400000000000      0.514000000000000     -0.923700000000000
H      -5.798700000000000      0.973200000000000     -1.080100000000000
H      -5.742100000000000      1.296800000000000      0.649600000000000
H       3.007000000000000     -1.733800000000000     -0.648100000000000
H       3.025300000000000     -1.488200000000000      1.102100000000000
H      -7.231600000000000     -1.043600000000000     -0.647200000000000
H      -7.177300000000000     -0.704000000000000      1.084100000000000
H      -9.266000000000000      0.167200000000000      0.079100000000000
H      -8.282500000000001      1.509100000000000      0.688900000000000
H      -8.337400000000001      1.166700000000000     -1.051700000000000
H       4.638100000000000     -0.381900000000000     -2.097600000000000
H       4.683200000000000      0.212100000000000      2.081800000000000
H       6.924100000000000      0.980900000000000     -1.352000000000000
