39

N      -2.317000000000000      1.325300000000000      0.275000000000000
N      -2.423000000000000     -2.352500000000000     -0.246100000000000
C      -0.285500000000000      0.052400000000000     -0.131500000000000
C       1.852600000000000      1.262600000000000     -0.754700000000000
C       1.664200000000000      0.126000000000000      1.486500000000000
C       1.832300000000000     -1.253600000000000     -0.615700000000000
C       0.318900000000000      1.264700000000000     -0.878900000000000
C       0.130900000000000      0.131200000000000      1.356300000000000
C       0.298600000000000     -1.244700000000000     -0.739900000000000
C       2.240300000000000      1.335200000000000      0.731600000000000
C       2.407600000000000     -0.037400000000000     -1.360300000000000
C       2.220100000000000     -1.168400000000000      0.869800000000000
C      -1.811300000000000      0.057800000000000     -0.257100000000000
C      -2.478400000000000     -1.098900000000000      0.500400000000000
C      -3.650200000000000      1.600300000000000     -0.235400000000000
H       2.268100000000000      2.125000000000000     -1.288000000000000
H       1.946800000000000      0.182300000000000      2.543800000000000
H       2.233900000000000     -2.176100000000000     -1.050100000000000
H      -0.056200000000000      2.214700000000000     -0.478700000000000
H       0.036900000000000      1.236100000000000     -1.939500000000000
H      -0.237100000000000     -0.718100000000000      1.938900000000000
H      -0.250100000000000      1.039500000000000      1.837700000000000
H       0.009700000000000     -1.344000000000000     -1.793700000000000
H      -0.050900000000000     -2.136400000000000     -0.213300000000000
H       3.332400000000000      1.354100000000000      0.832900000000000
H       1.863800000000000      2.266500000000000      1.172200000000000
H       2.150700000000000     -0.094300000000000     -2.425200000000000
H       3.502600000000000     -0.042600000000000     -1.296100000000000
H       3.311900000000000     -1.192900000000000      0.973300000000000
H       1.830400000000000     -2.039600000000000      1.410700000000000
H      -2.063100000000000     -0.005300000000000     -1.325700000000000
H      -3.545700000000000     -0.906600000000000      0.648000000000000
H      -2.088900000000000     -1.256700000000000      1.507200000000000
H      -2.345300000000000      1.301000000000000      1.293500000000000
H      -3.668700000000000      1.616600000000000     -1.330400000000000
H      -3.953400000000000      2.598400000000000      0.098400000000000
H      -4.410800000000000      0.903500000000000      0.125300000000000
H      -2.881300000000000     -2.236000000000000     -1.148900000000000
H      -2.950100000000000     -3.068300000000000      0.252400000000000
