39

N       1.185500000000000     -0.965100000000000      0.554300000000000
N      -1.120600000000000     -1.058100000000000      0.363400000000000
C      -0.020900000000000      1.140600000000000     -0.004200000000000
C       1.218200000000000      1.497700000000000     -0.850800000000000
C      -1.284100000000000      1.543000000000000     -0.778000000000000
C       2.471000000000000     -0.548900000000000     -0.000600000000000
C      -0.033500000000000     -0.361400000000000      0.295800000000000
C       2.513100000000000      0.970100000000000     -0.234500000000000
C      -2.525500000000000      0.971700000000000     -0.112600000000000
C      -2.446800000000000     -0.554200000000000      0.001000000000000
C       0.029200000000000      1.876800000000000      1.354600000000000
C       2.683700000000000     -1.311300000000000     -1.319400000000000
C       3.575700000000000     -0.945600000000000      0.988900000000000
C      -2.818800000000000     -1.216600000000000     -1.336900000000000
C      -3.426100000000000     -1.038800000000000      1.079000000000000
H       1.293600000000000      2.586200000000000     -0.967700000000000
H       1.113700000000000      1.086100000000000     -1.862600000000000
H      -1.231000000000000      1.181900000000000     -1.812500000000000
H      -1.367400000000000      2.635400000000000     -0.835900000000000
H       3.356300000000000      1.229200000000000     -0.887500000000000
H       2.703500000000000      1.495800000000000      0.708600000000000
H      -2.653500000000000      1.424800000000000      0.877200000000000
H      -3.415100000000000      1.267300000000000     -0.683100000000000
H       1.150400000000000     -1.930800000000000      0.873400000000000
H       0.034600000000000      2.963100000000000      1.213500000000000
H      -0.823500000000000      1.622700000000000      1.992300000000000
H       0.916100000000000      1.609600000000000      1.938100000000000
H       3.639100000000000     -1.042800000000000     -1.783500000000000
H       2.686500000000000     -2.395000000000000     -1.152100000000000
H       1.887000000000000     -1.104100000000000     -2.042000000000000
H       4.564600000000000     -0.657300000000000      0.615700000000000
H       3.426700000000000     -0.462700000000000      1.961700000000000
H       3.584400000000000     -2.027700000000000      1.164600000000000
H      -2.110200000000000     -0.950800000000000     -2.128700000000000
H      -2.804800000000000     -2.309900000000000     -1.252600000000000
H      -3.821200000000000     -0.919600000000000     -1.664400000000000
H      -3.413000000000000     -2.131500000000000      1.166300000000000
H      -3.159000000000000     -0.635000000000000      2.062400000000000
H      -4.452600000000000     -0.730000000000000      0.852400000000000
