39

N      -1.303700000000000      0.812600000000000      0.682900000000000
N       1.015500000000000      0.640800000000000      0.118700000000000
C      -1.877100000000000      0.410600000000000     -0.587600000000000
C      -2.040200000000000     -1.112000000000000     -0.632600000000000
C      -3.213000000000000      1.126100000000000     -0.811800000000000
C       2.353900000000000      0.833600000000000      0.693700000000000
C      -3.151700000000000     -1.615500000000000      0.288400000000000
C      -4.320200000000000      0.614700000000000      0.110000000000000
C      -4.472300000000000     -0.900500000000000      0.021100000000000
C       2.806200000000000     -0.464500000000000      1.363600000000000
C       3.313000000000000      1.276400000000000     -0.411800000000000
C       3.117900000000000     -1.571400000000000      0.356900000000000
C       3.622300000000000      0.159400000000000     -1.408300000000000
C       4.107500000000000     -1.104600000000000     -0.705900000000000
C       0.042100000000000      0.894000000000000      0.922600000000000
H      -1.201000000000000      0.716100000000000     -1.396000000000000
H      -1.098800000000000     -1.609200000000000     -0.369300000000000
H      -2.276600000000000     -1.411300000000000     -1.661900000000000
H      -3.525900000000000      0.975200000000000     -1.853000000000000
H      -3.094700000000000      2.207300000000000     -0.670500000000000
H       2.332500000000000      1.632700000000000      1.447300000000000
H      -2.860600000000000     -1.467900000000000      1.335500000000000
H      -3.283600000000000     -2.694200000000000      0.146500000000000
H      -5.268500000000000      1.092100000000000     -0.162900000000000
H      -4.113900000000000      0.903500000000000      1.147000000000000
H      -4.838200000000000     -1.172100000000000     -0.976700000000000
H      -5.227200000000000     -1.238300000000000      0.740100000000000
H       2.048200000000000     -0.821600000000000      2.070900000000000
H       3.711600000000000     -0.261300000000000      1.949900000000000
H       4.253700000000000      1.608200000000000      0.045800000000000
H       2.900100000000000      2.138000000000000     -0.950100000000000
H       2.190700000000000     -1.902700000000000     -0.126600000000000
H       3.527900000000000     -2.440600000000000      0.883700000000000
H       4.385000000000000      0.501800000000000     -2.117000000000000
H       2.725000000000000     -0.070400000000000     -1.995700000000000
H       5.081100000000000     -0.911900000000000     -0.238700000000000
H       4.259300000000000     -1.900800000000000     -1.443300000000000
H      -1.944200000000000      0.992800000000000      1.450700000000000
H       0.225400000000000      1.216600000000000      1.962700000000000
