39

N       1.464100000000000      0.667600000000000     -0.429600000000000
N       4.706600000000000     -1.060100000000000      0.232300000000000
C       0.069400000000000      0.289400000000000     -0.209100000000000
C      -1.714200000000000     -1.416700000000000     -0.755200000000000
C      -1.667600000000000     -0.330300000000000      1.519700000000000
C      -2.334400000000000      1.014700000000000     -0.506300000000000
C      -0.243600000000000     -1.016000000000000     -0.972800000000000
C      -0.197100000000000      0.067300000000000      1.295900000000000
C      -0.862400000000000      1.409300000000000     -0.724800000000000
C      -1.964400000000000     -1.627400000000000      0.747800000000000
C      -2.627100000000000     -0.289600000000000     -1.267300000000000
C      -2.580800000000000      0.791000000000000      0.995500000000000
C       2.359200000000000     -0.409700000000000     -0.007700000000000
C       1.778800000000000      1.903200000000000      0.286900000000000
C       3.813500000000000      0.007200000000000     -0.205100000000000
H      -1.930600000000000     -2.342600000000000     -1.299700000000000
H      -1.851600000000000     -0.486300000000000      2.588700000000000
H      -2.990700000000000      1.811300000000000     -0.874600000000000
H       0.350000000000000     -1.868500000000000     -0.627100000000000
H      -0.047300000000000     -0.895300000000000     -2.046200000000000
H      -0.008600000000000      0.968800000000000      1.890000000000000
H       0.408500000000000     -0.735100000000000      1.727600000000000
H      -0.684900000000000      1.598000000000000     -1.791800000000000
H      -0.737800000000000      2.363000000000000     -0.205400000000000
H      -1.331600000000000     -2.440800000000000      1.123500000000000
H      -3.005000000000000     -1.931700000000000      0.914400000000000
H      -2.469400000000000     -0.139400000000000     -2.342500000000000
H      -3.679100000000000     -0.571400000000000     -1.136000000000000
H      -2.391500000000000      1.718700000000000      1.549400000000000
H      -3.631900000000000      0.527800000000000      1.166500000000000
H       2.227500000000000     -1.305200000000000     -0.621800000000000
H       2.245800000000000     -0.693600000000000      1.042600000000000
H       1.903800000000000      1.769300000000000      1.367400000000000
H       1.088300000000000      2.730600000000000      0.121900000000000
H       2.715200000000000      2.324800000000000     -0.097500000000000
H       4.085700000000000      0.878000000000000      0.396800000000000
H       4.012800000000000      0.241700000000000     -1.257100000000000
H       5.672100000000000     -0.790100000000000      0.048500000000000
H       4.535700000000000     -1.899400000000000     -0.320200000000000
