39

N      -2.518700000000000     -0.248900000000000     -0.092300000000000
N      -0.094100000000000     -1.736600000000000      0.137400000000000
C      -1.225300000000000      0.426000000000000      0.048300000000000
C      -0.120500000000000     -0.440200000000000     -0.563000000000000
C       1.249500000000000      0.222100000000000     -0.434200000000000
C      -1.519900000000000      1.747600000000000     -0.643600000000000
C      -3.512900000000000      0.729100000000000      0.325600000000000
C       1.583000000000000      0.495600000000000      1.038700000000000
C       2.334100000000000     -0.644600000000000     -1.087900000000000
C      -2.981400000000000      2.029400000000000     -0.280000000000000
C      -2.531500000000000     -1.508400000000000      0.637000000000000
C      -1.402300000000000     -2.401900000000000      0.102600000000000
C       2.971900000000000      1.109700000000000      1.197700000000000
C       3.722000000000000     -0.028700000000000     -0.925300000000000
C       4.046200000000000      0.249800000000000      0.539100000000000
H      -1.050800000000000      0.612200000000000      1.116600000000000
H      -0.326000000000000     -0.617800000000000     -1.627800000000000
H       1.228500000000000      1.183600000000000     -0.965200000000000
H      -1.418600000000000      1.663100000000000     -1.732600000000000
H      -0.859000000000000      2.551100000000000     -0.303600000000000
H      -3.564100000000000      0.820800000000000      1.417700000000000
H      -4.511600000000000      0.487900000000000     -0.051000000000000
H       1.569200000000000     -0.413600000000000      1.647400000000000
H       0.876000000000000      1.200000000000000      1.486700000000000
H       2.119400000000000     -0.769100000000000     -2.156200000000000
H       2.355600000000000     -1.649900000000000     -0.649900000000000
H      -3.057100000000000      2.850700000000000      0.440700000000000
H      -3.543900000000000      2.312700000000000     -1.176500000000000
H      -3.490000000000000     -2.018800000000000      0.490100000000000
H      -2.403100000000000     -1.348600000000000      1.715600000000000
H       0.138400000000000     -1.598000000000000      1.118800000000000
H      -1.349900000000000     -3.319800000000000      0.698600000000000
H      -1.621300000000000     -2.710300000000000     -0.927500000000000
H       3.201800000000000      1.235200000000000      2.261900000000000
H       2.981400000000000      2.111200000000000      0.749700000000000
H       3.774300000000000      0.907200000000000     -1.495100000000000
H       4.476200000000000     -0.702000000000000     -1.348300000000000
H       5.017300000000000      0.752100000000000      0.612800000000000
H       4.135500000000000     -0.700200000000000      1.080100000000000
