39

N       2.500700000000000      0.397200000000000      0.666400000000000
N      -1.977300000000000      0.292200000000000     -0.152200000000000
C       1.259600000000000      1.170100000000000      0.378900000000000
C       2.406500000000000     -0.886200000000000     -0.073800000000000
C       0.437700000000000      0.288000000000000     -0.524400000000000
C      -0.899100000000000      0.672200000000000     -1.052900000000000
C       1.082800000000000     -0.854800000000000     -0.771700000000000
C      -3.293700000000000      0.667700000000000     -0.667300000000000
C      -2.048800000000000     -1.154000000000000      0.054200000000000
C       1.625900000000000      2.499100000000000     -0.295700000000000
C       0.556200000000000      1.437800000000000      1.714700000000000
C      -4.243900000000000     -0.145900000000000      0.198800000000000
C      -3.424700000000000     -1.341300000000000      0.675900000000000
C       3.551700000000000     -1.005100000000000     -1.085300000000000
C       2.466400000000000     -2.037000000000000      0.934500000000000
H       2.593500000000000      0.227100000000000      1.667000000000000
H      -1.041700000000000      0.213000000000000     -2.041400000000000
H      -0.926900000000000      1.753900000000000     -1.226500000000000
H       0.707700000000000     -1.653900000000000     -1.396200000000000
H      -3.416400000000000      0.381600000000000     -1.719800000000000
H      -3.482700000000000      1.741800000000000     -0.573500000000000
H      -1.275200000000000     -1.530800000000000      0.730700000000000
H      -1.996200000000000     -1.708300000000000     -0.891800000000000
H      -5.129800000000000     -0.459700000000000     -0.362800000000000
H      -4.582700000000000      0.439500000000000      1.061700000000000
H      -3.362600000000000     -1.334100000000000      1.770500000000000
H      -3.877400000000000     -2.290400000000000      0.371600000000000
H       2.103900000000000      2.338000000000000     -1.269400000000000
H       0.744100000000000      3.128800000000000     -0.457000000000000
H       2.324800000000000      3.074500000000000      0.323300000000000
H      -0.351400000000000      2.036200000000000      1.574000000000000
H       0.262600000000000      0.507200000000000      2.215600000000000
H       1.204400000000000      1.994800000000000      2.402200000000000
H       3.487100000000000     -1.943300000000000     -1.649000000000000
H       3.535800000000000     -0.182700000000000     -1.811000000000000
H       4.526300000000000     -0.984500000000000     -0.583800000000000
H       1.653800000000000     -1.978700000000000      1.669300000000000
H       2.378700000000000     -3.006800000000000      0.430200000000000
H       3.414400000000000     -2.037000000000000      1.485500000000000
