39

N       2.509200000000000      0.114900000000000      0.397400000000000
N       3.097800000000000     -1.085500000000000      0.432500000000000
C      -1.333300000000000      0.236000000000000      0.778300000000000
C      -2.484800000000000     -0.059000000000000     -0.186200000000000
C       0.023500000000000      0.000400000000000      0.106800000000000
C      -3.868700000000000      0.139400000000000      0.438700000000000
C       1.208500000000000      0.276700000000000      1.035900000000000
C      -5.019600000000000     -0.225000000000000     -0.501700000000000
C      -6.372300000000000     -0.076700000000000      0.196200000000000
C       3.214500000000000      1.075200000000000     -0.250000000000000
C       4.364400000000000      0.457500000000000     -0.677600000000000
C      -7.518600000000000     -0.472900000000000     -0.720500000000000
C       4.238000000000000     -0.871000000000000     -0.229500000000000
C       2.746800000000000      2.464900000000000     -0.405100000000000
C       5.194500000000000     -1.974700000000000     -0.415400000000000
H      -1.398700000000000      1.275100000000000      1.122300000000000
H      -1.420200000000000     -0.405600000000000      1.663300000000000
H      -2.395200000000000      0.586100000000000     -1.068900000000000
H      -2.399100000000000     -1.093800000000000     -0.540700000000000
H       0.100800000000000      0.636200000000000     -0.783900000000000
H       0.080700000000000     -1.035900000000000     -0.250100000000000
H      -3.974100000000000      1.184500000000000      0.755300000000000
H      -3.938300000000000     -0.474200000000000      1.345700000000000
H       1.185000000000000     -0.404600000000000      1.895400000000000
H       1.157600000000000      1.294200000000000      1.438300000000000
H      -4.986000000000000      0.417800000000000     -1.389500000000000
H      -4.896100000000000     -1.259000000000000     -0.845800000000000
H      -6.511500000000000      0.961000000000000      0.520900000000000
H      -6.399600000000000     -0.704400000000000      1.094500000000000
H       5.175600000000000      0.905400000000000     -1.233600000000000
H      -8.475700000000000     -0.357600000000000     -0.202200000000000
H      -7.426400000000000     -1.517200000000000     -1.035300000000000
H      -7.539400000000000      0.155800000000000     -1.616400000000000
H       3.437200000000000      3.040300000000000     -1.031000000000000
H       2.685200000000000      2.967000000000000      0.565700000000000
H       1.762500000000000      2.502500000000000     -0.881800000000000
H       6.076600000000000     -1.647800000000000     -0.975600000000000
H       5.535300000000000     -2.358600000000000      0.551800000000000
H       4.732400000000000     -2.798400000000000     -0.969200000000000
