39

N       0.582500000000000     -1.318500000000000      0.007400000000000
N      -0.753900000000000     -1.460200000000000      0.008000000000000
C       2.423700000000000      0.363500000000000      0.001100000000000
C      -2.642600000000000      0.064800000000000      0.002300000000000
C       0.999000000000000     -0.019800000000000      0.003100000000000
C      -1.129700000000000     -0.210100000000000      0.003800000000000
C      -0.144600000000000      0.741300000000000      0.000700000000000
C       2.607700000000000      1.918800000000000     -0.004900000000000
C       3.173500000000000     -0.189900000000000     -1.257600000000000
C       3.271900000000000     -0.136800000000000      1.226200000000000
C      -3.510300000000000     -1.214200000000000      0.007800000000000
C      -3.024000000000000      0.879600000000000      1.257200000000000
C      -3.023300000000000      0.868300000000000     -1.260000000000000
C      -0.246600000000000      2.211000000000000     -0.006500000000000
C       1.416700000000000     -2.497900000000000      0.011400000000000
H       2.221300000000000      2.387000000000000      0.903400000000000
H       2.200700000000000      2.381600000000000     -0.906600000000000
H       3.677300000000000      2.170100000000000     -0.022600000000000
H       3.454400000000000     -1.240900000000000     -1.169000000000000
H       4.113100000000000      0.353000000000000     -1.418700000000000
H       2.567000000000000     -0.067700000000000     -2.162300000000000
H       3.524600000000000     -1.196800000000000      1.174300000000000
H       4.229700000000000      0.394000000000000      1.287700000000000
H       2.731500000000000      0.039800000000000      2.163000000000000
H      -3.314000000000000     -1.826900000000000      0.895700000000000
H      -3.313700000000000     -1.834800000000000     -0.874500000000000
H      -4.579700000000000     -0.972600000000000      0.006500000000000
H      -2.578000000000000      1.872400000000000      1.309800000000000
H      -4.109800000000000      1.028100000000000      1.306400000000000
H      -2.727400000000000      0.346600000000000      2.169000000000000
H      -2.574300000000000      1.859500000000000     -1.321400000000000
H      -2.728100000000000      0.326400000000000     -2.167000000000000
H      -4.108700000000000      1.018900000000000     -1.310000000000000
H       0.204200000000000      2.649200000000000      0.887000000000000
H       0.190200000000000      2.638300000000000     -0.912200000000000
H      -1.264600000000000      2.591200000000000     -0.001200000000000
H       0.763100000000000     -3.375200000000000      0.079500000000000
H       1.956500000000000     -2.575100000000000     -0.929900000000000
H       2.052800000000000     -2.509900000000000      0.891800000000000
