39

N       1.099700000000000      1.016300000000000     -0.000500000000000
N       5.896300000000000     -0.105000000000000     -0.003000000000000
C      -0.263900000000000      0.489600000000000     -0.005900000000000
C      -2.713700000000000      1.112800000000000     -0.028300000000000
C      -1.930300000000000     -0.952100000000000     -1.244700000000000
C      -1.940900000000000     -0.901900000000000      1.276300000000000
C      -1.273700000000000      1.657800000000000     -0.033400000000000
C      -0.492500000000000     -0.401400000000000     -1.246500000000000
C      -0.503000000000000     -0.351700000000000      1.268200000000000
C      -2.922500000000000      0.223100000000000     -1.265500000000000
C      -2.932800000000000      0.273300000000000      1.241900000000000
C      -2.153500000000000     -1.780700000000000      0.031900000000000
C       2.070900000000000     -0.066700000000000      0.014800000000000
C       3.509700000000000      0.454000000000000     -0.001000000000000
C       4.550200000000000     -0.667400000000000     -0.004200000000000
H      -3.424400000000000      1.946600000000000     -0.047900000000000
H      -2.086800000000000     -1.582600000000000     -2.127200000000000
H      -2.105200000000000     -1.496700000000000      2.181900000000000
H      -1.118400000000000      2.278000000000000     -0.926100000000000
H      -1.128000000000000      2.313500000000000      0.835400000000000
H       0.164600000000000     -1.276400000000000     -1.274000000000000
H      -0.313800000000000      0.166600000000000     -2.168900000000000
H      -0.334000000000000      0.251900000000000      2.169600000000000
H       0.154800000000000     -1.223800000000000      1.336400000000000
H      -3.951600000000000     -0.156200000000000     -1.284300000000000
H      -2.784200000000000      0.813900000000000     -2.179400000000000
H      -2.801800000000000      0.900200000000000      2.132500000000000
H      -3.962100000000000     -0.105000000000000      1.267400000000000
H      -3.169500000000000     -2.194500000000000      0.035800000000000
H      -1.463400000000000     -2.633100000000000      0.051800000000000
H       1.240200000000000      1.614400000000000      0.813200000000000
H       1.992800000000000     -0.689100000000000      0.909400000000000
H       1.990000000000000     -0.709300000000000     -0.864900000000000
H       3.671100000000000      1.096100000000000      0.875300000000000
H       3.654100000000000      1.086800000000000     -0.887100000000000
H       4.421000000000000     -1.301400000000000     -0.888000000000000
H       4.425500000000000     -1.298700000000000      0.882000000000000
H       6.032300000000000      0.461800000000000     -0.839100000000000
H       6.577900000000000     -0.860900000000000     -0.056500000000000
