40

O      -1.634100000000000      1.076400000000000     -0.039700000000000
O      -2.463300000000000     -0.435300000000000     -1.572800000000000
C       2.463400000000000      1.180700000000000     -0.242400000000000
C       2.465000000000000      0.135000000000000      0.880400000000000
C       1.577000000000000      2.376200000000000      0.038500000000000
C       3.341900000000000     -1.046100000000000      0.568800000000000
C       0.272400000000000      2.460600000000000     -0.287200000000000
C       2.264700000000000      3.541100000000000      0.703600000000000
C      -0.583800000000000      1.418800000000000     -0.933900000000000
C       2.983800000000000     -2.229800000000000      0.036300000000000
C      -3.562700000000000     -0.121000000000000      0.573800000000000
C      -4.594100000000000     -1.154600000000000      0.128500000000000
C      -2.514400000000000      0.125900000000000     -0.487000000000000
C       1.592900000000000     -2.607300000000000     -0.386900000000000
C       4.015000000000000     -3.302200000000000     -0.195100000000000
C      -5.623800000000000     -1.418600000000000      1.215000000000000
H       3.489400000000000      1.529100000000000     -0.422600000000000
H       2.162300000000000      0.708200000000000     -1.185700000000000
H       2.826900000000000      0.590800000000000      1.811000000000000
H       1.440600000000000     -0.189600000000000      1.095000000000000
H       4.392500000000000     -0.892200000000000      0.813100000000000
H      -0.254800000000000      3.383900000000000     -0.049000000000000
H       3.076400000000000      3.914300000000000      0.070400000000000
H       2.687100000000000      3.232400000000000      1.665300000000000
H       1.582600000000000      4.376200000000000      0.894900000000000
H      -0.019100000000000      0.517100000000000     -1.187100000000000
H      -1.009000000000000      1.834300000000000     -1.854900000000000
H      -4.062300000000000      0.829900000000000      0.790000000000000
H      -3.053600000000000     -0.471000000000000      1.478800000000000
H      -5.103600000000000     -0.807500000000000     -0.778400000000000
H      -4.094000000000000     -2.095700000000000     -0.130200000000000
H       1.230900000000000     -3.448200000000000      0.213600000000000
H       0.875100000000000     -1.790100000000000     -0.282500000000000
H       1.587600000000000     -2.907200000000000     -1.440300000000000
H       4.069700000000000     -3.552400000000000     -1.259600000000000
H       5.016400000000000     -2.996000000000000      0.125600000000000
H       3.751100000000000     -4.207200000000000      0.361900000000000
H      -6.165900000000000     -0.503000000000000      1.472300000000000
H      -5.147100000000000     -1.802600000000000      2.122500000000000
H      -6.352800000000000     -2.160500000000000      0.874400000000000
