40

O       1.575400000000000      0.545800000000000      0.387600000000000
O       3.670900000000000      1.241200000000000     -0.279300000000000
C      -2.859900000000000      1.841700000000000      0.346000000000000
C      -3.655300000000000      0.562500000000000      0.054000000000000
C      -1.419100000000000      1.783100000000000     -0.116400000000000
C       3.251000000000000     -1.111700000000000      0.184200000000000
C      -0.346300000000000      1.897500000000000      0.690700000000000
C      -3.059400000000000     -0.651500000000000      0.711600000000000
C       1.099200000000000      1.882500000000000      0.307500000000000
C      -1.229600000000000      1.615900000000000     -1.602400000000000
C      -2.696100000000000     -1.813800000000000      0.137300000000000
C       2.894400000000000      0.359600000000000      0.064600000000000
C       2.985800000000000     -1.814900000000000     -1.141700000000000
C       4.706200000000000     -1.282900000000000      0.612300000000000
C      -2.119500000000000     -2.926400000000000      0.971900000000000
C      -2.797900000000000     -2.128600000000000     -1.328000000000000
H      -3.354300000000000      2.690400000000000     -0.143000000000000
H      -2.897700000000000      2.049900000000000      1.423400000000000
H      -3.779900000000000      0.443100000000000     -1.024700000000000
H      -4.668400000000000      0.693000000000000      0.455200000000000
H       2.621600000000000     -1.554100000000000      0.966500000000000
H      -0.531100000000000      2.008800000000000      1.758300000000000
H      -2.937300000000000     -0.558000000000000      1.790400000000000
H       1.651000000000000      2.505300000000000      1.022600000000000
H       1.279800000000000      2.300400000000000     -0.687200000000000
H      -1.734200000000000      2.430000000000000     -2.134100000000000
H      -1.660300000000000      0.669600000000000     -1.942000000000000
H      -0.191000000000000      1.610800000000000     -1.936600000000000
H       3.211600000000000     -2.883700000000000     -1.070100000000000
H       3.594800000000000     -1.388700000000000     -1.946800000000000
H       1.935500000000000     -1.709400000000000     -1.434600000000000
H       4.945900000000000     -2.340800000000000      0.762100000000000
H       4.898700000000000     -0.754400000000000      1.552400000000000
H       5.395500000000000     -0.881600000000000     -0.138900000000000
H      -1.110800000000000     -3.175100000000000      0.625800000000000
H      -2.049700000000000     -2.661200000000000      2.032100000000000
H      -2.744900000000000     -3.821800000000000      0.894400000000000
H      -3.387500000000000     -3.040000000000000     -1.474700000000000
H      -3.273200000000000     -1.343900000000000     -1.918400000000000
H      -1.799100000000000     -2.295800000000000     -1.744900000000000
