40

O       1.047100000000000      0.255900000000000      0.374400000000000
O       2.790800000000000     -1.199900000000000     -0.029000000000000
C       0.154000000000000     -0.861300000000000      0.527500000000000
C      -1.252400000000000     -0.278300000000000      0.806200000000000
C      -1.739500000000000      0.758800000000000     -0.211500000000000
C       0.678600000000000     -1.642300000000000      1.738700000000000
C       0.174500000000000     -1.624000000000000     -0.781000000000000
C      -3.079400000000000      1.314700000000000      0.185100000000000
C       2.341400000000000     -0.069100000000000      0.096600000000000
C       3.142000000000000      1.206800000000000     -0.031700000000000
C      -4.295000000000000      0.850300000000000     -0.161000000000000
C       4.615700000000000      0.930500000000000     -0.318500000000000
C       0.047900000000000     -2.945100000000000     -0.956500000000000
C      -4.427200000000000     -0.370400000000000     -1.031700000000000
C      -5.602400000000000      1.452900000000000      0.269900000000000
C       5.404000000000000      2.220400000000000     -0.477600000000000
H      -1.978700000000000     -1.098400000000000      0.884100000000000
H      -1.230900000000000      0.210400000000000      1.791100000000000
H      -1.770400000000000      0.343000000000000     -1.223200000000000
H      -1.035300000000000      1.598300000000000     -0.262200000000000
H       1.539300000000000     -2.284200000000000      1.531400000000000
H      -0.101000000000000     -2.309400000000000      2.127100000000000
H       0.967800000000000     -0.966000000000000      2.552000000000000
H       0.255400000000000     -1.023100000000000     -1.686700000000000
H      -3.037400000000000      2.188600000000000      0.833700000000000
H       2.710400000000000      1.798300000000000     -0.847000000000000
H       3.047400000000000      1.767000000000000      0.905400000000000
H       4.713700000000000      0.333000000000000     -1.232900000000000
H       5.049800000000000      0.337100000000000      0.495000000000000
H       0.055700000000000     -3.368700000000000     -1.954900000000000
H      -0.070400000000000     -3.623600000000000     -0.119700000000000
H      -5.114400000000000     -1.085700000000000     -0.565900000000000
H      -3.494000000000000     -0.910300000000000     -1.205100000000000
H      -4.839200000000000     -0.089700000000000     -2.006800000000000
H      -5.451100000000000      2.339800000000000      0.894000000000000
H      -6.189100000000000      1.754500000000000     -0.603600000000000
H      -6.184000000000000      0.730100000000000      0.850900000000000
H       6.456300000000000      1.999000000000000     -0.681200000000000
H       5.015600000000000      2.817600000000000     -1.308900000000000
H       5.354100000000000      2.825400000000000      0.433400000000000
