40

O       1.314100000000000      0.280800000000000      0.233700000000000
O       3.101900000000000     -1.127500000000000     -0.140600000000000
C       0.482100000000000     -0.857800000000000      0.517400000000000
C      -0.935800000000000     -0.315000000000000      0.819200000000000
C      -1.517000000000000      0.615800000000000     -0.250700000000000
C       1.097500000000000     -1.516100000000000      1.758500000000000
C       0.477900000000000     -1.721400000000000     -0.727100000000000
C       3.359700000000000      1.285100000000000     -0.341500000000000
C      -2.861500000000000      1.143900000000000      0.167800000000000
C       2.608300000000000     -0.008900000000000     -0.081900000000000
C      -4.069100000000000      0.602200000000000     -0.080200000000000
C       2.723300000000000      2.023400000000000     -1.513000000000000
C       3.380300000000000      2.159400000000000      0.909600000000000
C       0.404800000000000     -3.056500000000000     -0.792500000000000
C      -5.381600000000000      1.181100000000000      0.367300000000000
C      -4.184900000000000     -0.688400000000000     -0.846100000000000
H      -1.618700000000000     -1.156600000000000      0.996600000000000
H      -0.891600000000000      0.251400000000000      1.760700000000000
H      -1.575100000000000      0.119700000000000     -1.224300000000000
H      -0.855600000000000      1.477900000000000     -0.401200000000000
H       1.393200000000000     -0.764700000000000      2.500600000000000
H       0.368200000000000     -2.181700000000000      2.236600000000000
H       1.976100000000000     -2.136000000000000      1.559500000000000
H       0.489600000000000     -1.191900000000000     -1.679700000000000
H       4.389500000000000      1.016700000000000     -0.606200000000000
H      -2.830000000000000      2.067600000000000      0.743800000000000
H       3.318400000000000      2.901800000000000     -1.784100000000000
H       1.708700000000000      2.365600000000000     -1.280500000000000
H       2.658200000000000      1.374300000000000     -2.393200000000000
H       3.998500000000000      3.048900000000000      0.749500000000000
H       3.793200000000000      1.606800000000000      1.760500000000000
H       2.375400000000000      2.493400000000000      1.190700000000000
H       0.386500000000000     -3.558000000000000     -1.754000000000000
H       0.356400000000000     -3.670100000000000      0.099500000000000
H      -5.901600000000000      0.482800000000000      1.030700000000000
H      -6.021500000000000      1.387000000000000     -0.496700000000000
H      -5.242800000000000      2.120500000000000      0.912400000000000
H      -4.654400000000000     -0.504000000000000     -1.818100000000000
H      -3.236700000000000     -1.200100000000000     -1.023700000000000
H      -4.815800000000000     -1.393100000000000     -0.292500000000000
