40

O      -2.120100000000000      0.681300000000000      0.154900000000000
O      -2.460300000000000     -1.435800000000000      1.004500000000000
C       1.889900000000000      1.229200000000000     -0.633300000000000
C       2.897600000000000      0.719400000000000      0.405300000000000
C       0.958800000000000      2.300600000000000     -0.105300000000000
C      -4.145900000000000     -0.399500000000000     -0.413900000000000
C      -0.226700000000000      2.065100000000000      0.490000000000000
C       3.799400000000000     -0.352400000000000     -0.141900000000000
C      -0.854600000000000      0.743400000000000      0.799100000000000
C       1.427400000000000      3.717600000000000     -0.317300000000000
C       3.657600000000000     -1.687700000000000     -0.044300000000000
C      -2.830000000000000     -0.476400000000000      0.340300000000000
C      -3.957200000000000     -0.923300000000000     -1.832700000000000
C      -5.235000000000000     -1.180600000000000      0.316800000000000
C       4.680300000000000     -2.607400000000000     -0.656800000000000
C       2.518600000000000     -2.393600000000000      0.634600000000000
H       2.427600000000000      1.619600000000000     -1.508000000000000
H       1.303600000000000      0.387100000000000     -1.022100000000000
H       2.371700000000000      0.363800000000000      1.298500000000000
H       3.527300000000000      1.549900000000000      0.749500000000000
H      -4.459500000000000      0.651300000000000     -0.449300000000000
H      -0.813000000000000      2.923200000000000      0.817000000000000
H       4.664100000000000      0.032000000000000     -0.681600000000000
H      -0.996800000000000      0.669700000000000      1.883700000000000
H      -0.236200000000000     -0.098000000000000      0.473800000000000
H       1.542700000000000      3.922900000000000     -1.386600000000000
H       2.393400000000000      3.874100000000000      0.173600000000000
H       0.727000000000000      4.455200000000000      0.088300000000000
H      -4.888600000000000     -0.852000000000000     -2.403600000000000
H      -3.635700000000000     -1.970900000000000     -1.830300000000000
H      -3.190400000000000     -0.346900000000000     -2.361700000000000
H      -6.199000000000000     -1.072100000000000     -0.191200000000000
H      -5.349500000000000     -0.817900000000000      1.344100000000000
H      -4.996800000000000     -2.248800000000000      0.368600000000000
H       4.212100000000000     -3.244700000000000     -1.414100000000000
H       5.496900000000000     -2.061600000000000     -1.141300000000000
H       5.121500000000000     -3.248800000000000      0.113200000000000
H       2.888400000000000     -2.974000000000000      1.486200000000000
H       1.749800000000000     -1.711400000000000      1.005000000000000
H       2.029600000000000     -3.079700000000000     -0.065000000000000
