40

O       0.924400000000000     -0.042500000000000     -0.000300000000000
O       2.831400000000000     -1.340500000000000      0.035500000000000
C      -1.351500000000000     -0.805800000000000      0.034700000000000
C       0.117800000000000     -1.220700000000000      0.042500000000000
C      -1.707900000000000     -0.054900000000000     -1.252300000000000
C      -1.681100000000000      0.058200000000000      1.262400000000000
C      -3.194400000000000      0.313300000000000     -1.285300000000000
C      -3.716800000000000      0.846600000000000      0.025100000000000
C      -3.015900000000000      0.737600000000000      1.166800000000000
C       0.449200000000000     -2.080100000000000     -1.177200000000000
C       0.460100000000000     -1.964700000000000      1.331900000000000
C      -5.064500000000000      1.503600000000000     -0.018600000000000
C       2.275700000000000     -0.251100000000000      0.001200000000000
C       2.979700000000000      1.085800000000000     -0.045500000000000
C       4.498400000000000      0.933400000000000     -0.020400000000000
C       5.195400000000000      2.281900000000000     -0.100500000000000
H      -1.977000000000000     -1.710000000000000      0.078100000000000
H      -1.494200000000000     -0.650100000000000     -2.146200000000000
H      -1.112800000000000      0.864200000000000     -1.333000000000000
H      -0.926300000000000      0.836500000000000      1.424900000000000
H      -1.693000000000000     -0.570400000000000      2.160800000000000
H      -3.781900000000000     -0.572900000000000     -1.556400000000000
H      -3.349000000000000      1.055900000000000     -2.077400000000000
H      -3.415900000000000      1.152200000000000      2.088500000000000
H      -0.363300000000000     -2.785200000000000     -1.390400000000000
H       0.622800000000000     -1.472700000000000     -2.072700000000000
H       1.339400000000000     -2.703600000000000     -1.048700000000000
H      -0.335900000000000     -2.672200000000000      1.594200000000000
H       0.599700000000000     -1.279900000000000      2.176500000000000
H       1.368300000000000     -2.571500000000000      1.270200000000000
H      -5.043300000000000      2.370400000000000     -0.687000000000000
H      -5.387100000000000      1.851300000000000      0.968500000000000
H      -5.817600000000000      0.798900000000000     -0.386100000000000
H       2.673500000000000      1.598700000000000     -0.964100000000000
H       2.653300000000000      1.675200000000000      0.818700000000000
H       4.807100000000000      0.418600000000000      0.897300000000000
H       4.826100000000000      0.307900000000000     -0.859400000000000
H       6.281500000000000      2.149100000000000     -0.079800000000000
H       4.934500000000000      2.804000000000000     -1.026600000000000
H       4.914800000000000      2.919100000000000      0.744300000000000
