40

O       1.054800000000000      0.056700000000000     -0.076200000000000
O       3.045300000000000     -1.081000000000000      0.174800000000000
C      -1.162400000000000     -0.825800000000000      0.186300000000000
C       0.332000000000000     -1.134900000000000      0.237200000000000
C      -1.589700000000000     -0.388500000000000     -1.218400000000000
C      -1.531200000000000      0.255500000000000      1.214500000000000
C      -3.098400000000000     -0.131400000000000     -1.283700000000000
C      -3.635500000000000      0.632500000000000     -0.099500000000000
C      -2.910900000000000      0.812500000000000      1.018100000000000
C       0.702500000000000     -2.209900000000000     -0.784200000000000
C       0.744800000000000     -1.565900000000000      1.643300000000000
C      -5.025800000000000      1.177900000000000     -0.239900000000000
C       2.417400000000000     -0.059500000000000     -0.071400000000000
C       3.042800000000000      1.282800000000000     -0.408100000000000
C       3.257900000000000      2.085100000000000      0.869700000000000
C       4.356400000000000      1.094000000000000     -1.162600000000000
H      -1.723400000000000     -1.738500000000000      0.437300000000000
H      -1.349600000000000     -1.144300000000000     -1.973300000000000
H      -1.060600000000000      0.528900000000000     -1.508100000000000
H      -0.829100000000000      1.097200000000000      1.187300000000000
H      -1.485800000000000     -0.168200000000000      2.224800000000000
H      -3.627700000000000     -1.090600000000000     -1.344900000000000
H      -3.316000000000000      0.415300000000000     -2.209100000000000
H      -3.324000000000000      1.386300000000000      1.843700000000000
H      -0.063100000000000     -2.994200000000000     -0.820700000000000
H       0.820600000000000     -1.795700000000000     -1.791900000000000
H       1.634800000000000     -2.734600000000000     -0.553800000000000
H       0.002900000000000     -2.250200000000000      2.072600000000000
H       0.851600000000000     -0.710100000000000      2.320100000000000
H       1.690900000000000     -2.113700000000000      1.683300000000000
H      -5.074700000000000      1.883200000000000     -1.075800000000000
H      -5.356000000000000      1.705200000000000      0.661300000000000
H      -5.734300000000000      0.364800000000000     -0.428600000000000
H       2.356000000000000      1.824500000000000     -1.070500000000000
H       3.683500000000000      3.069000000000000      0.647600000000000
H       3.935200000000000      1.565300000000000      1.556400000000000
H       2.310000000000000      2.237000000000000      1.397600000000000
H       4.775100000000000      2.060100000000000     -1.462800000000000
H       4.201500000000000      0.494800000000000     -2.066500000000000
H       5.101600000000000      0.577100000000000     -0.547800000000000
