40

O      -4.027900000000000      0.377000000000000      0.072000000000000
O      -3.095700000000000     -1.645500000000000      0.673000000000000
C       3.349200000000000     -0.179200000000000     -0.393400000000000
C       4.523800000000000     -1.166800000000000     -0.388900000000000
C       3.606500000000000      0.980300000000000      0.578600000000000
C       5.849800000000000     -0.467200000000000     -0.678900000000000
C       4.934000000000000      1.676400000000000      0.286800000000000
C       2.043300000000000     -0.892500000000000     -0.048400000000000
C       6.097800000000000      0.690100000000000      0.283500000000000
C       0.843600000000000      0.048200000000000     -0.163600000000000
C      -0.466900000000000     -0.684900000000000      0.139600000000000
C      -1.689500000000000      0.221900000000000     -0.000100000000000
C      -2.992700000000000     -0.483500000000000      0.304600000000000
C      -5.336500000000000     -0.160600000000000      0.288100000000000
C      -6.345300000000000      0.899000000000000     -0.008000000000000
C      -7.293400000000000      0.787100000000000     -0.944800000000000
H       3.262200000000000      0.234900000000000     -1.407600000000000
H       4.357900000000000     -1.949700000000000     -1.138500000000000
H       4.586400000000000     -1.668000000000000      0.585500000000000
H       3.608800000000000      0.612400000000000      1.612400000000000
H       2.823000000000000      1.740900000000000      0.507900000000000
H       1.901400000000000     -1.741000000000000     -0.729600000000000
H       2.092900000000000     -1.306000000000000      0.966900000000000
H       6.670700000000000     -1.189400000000000     -0.606100000000000
H       5.845800000000000     -0.090800000000000     -1.709300000000000
H       4.877400000000000      2.177200000000000     -0.687700000000000
H       5.114300000000000      2.455600000000000      1.036000000000000
H       7.021300000000000      1.210100000000000      0.005000000000000
H       6.245300000000000      0.296700000000000      1.296800000000000
H       0.925200000000000      0.879500000000000      0.543100000000000
H       0.800600000000000      0.475100000000000     -1.172600000000000
H      -0.430300000000000     -1.094700000000000      1.156900000000000
H      -0.573600000000000     -1.542000000000000     -0.537400000000000
H      -1.741700000000000      0.602600000000000     -1.026600000000000
H      -1.597800000000000      1.070500000000000      0.687300000000000
H      -5.479200000000000     -1.038100000000000     -0.353500000000000
H      -5.435000000000000     -0.465000000000000      1.336400000000000
H      -6.300300000000000      1.810700000000000      0.581800000000000
H      -7.999500000000000      1.593600000000000     -1.110600000000000
H      -7.382900000000000     -0.102100000000000     -1.559000000000000
