40

O       4.719600000000000     -0.317400000000000      0.220900000000000
O       3.652900000000000      1.703000000000000     -0.095600000000000
C      -1.435600000000000      0.437700000000000     -0.018100000000000
C      -2.693100000000000     -0.430600000000000      0.067200000000000
C      -0.167900000000000     -0.398200000000000      0.170600000000000
C      -3.957200000000000      0.403100000000000     -0.153700000000000
C       1.090100000000000      0.467800000000000      0.051700000000000
C      -5.246600000000000     -0.422600000000000     -0.109600000000000
C       2.375500000000000     -0.345700000000000      0.202800000000000
C      -6.508400000000000      0.408500000000000     -0.355400000000000
C       3.628500000000000      0.495200000000000      0.096700000000000
C      -7.738600000000000     -0.450300000000000     -0.313900000000000
C      -8.763299999999999     -0.248800000000000      0.521900000000000
C       5.989000000000000      0.334300000000000      0.111300000000000
C       7.067300000000000     -0.685900000000000      0.268500000000000
C       7.987700000000000     -0.950100000000000     -0.665300000000000
H      -1.476800000000000      1.222200000000000      0.747200000000000
H      -1.401900000000000      0.938500000000000     -0.993400000000000
H      -2.741100000000000     -0.917700000000000      1.048500000000000
H      -2.644000000000000     -1.225200000000000     -0.687100000000000
H      -0.188100000000000     -0.884300000000000      1.153300000000000
H      -0.135900000000000     -1.193400000000000     -0.584100000000000
H      -4.009500000000000      1.190400000000000      0.608400000000000
H      -3.891500000000000      0.907700000000000     -1.125800000000000
H       1.095600000000000      0.976000000000000     -0.920900000000000
H       1.065100000000000      1.256300000000000      0.814500000000000
H      -5.319100000000000     -0.916900000000000      0.867900000000000
H      -5.182800000000000     -1.221000000000000     -0.860400000000000
H       2.414800000000000     -1.112100000000000     -0.579700000000000
H       2.382000000000000     -0.838900000000000      1.181500000000000
H      -6.448800000000000      0.884500000000000     -1.341400000000000
H      -6.568300000000000      1.214100000000000      0.386300000000000
H      -7.798500000000000     -1.273400000000000     -1.021300000000000
H      -9.629200000000001     -0.901300000000000      0.496500000000000
H      -8.757999999999999      0.562600000000000      1.241200000000000
H       6.055500000000000      0.839100000000000     -0.859700000000000
H       6.083700000000000      1.080300000000000      0.908600000000000
H       7.099800000000000     -1.238700000000000      1.203700000000000
H       8.747999999999999     -1.703300000000000     -0.489300000000000
H       8.000700000000000     -0.425800000000000     -1.614400000000000
