40

O       1.032000000000000      1.707700000000000      1.075300000000000
O       1.296300000000000      1.216700000000000     -1.163500000000000
C      -3.396900000000000      0.309400000000000      0.037000000000000
C      -3.083500000000000     -1.154100000000000     -0.300800000000000
C      -2.211700000000000      1.239000000000000     -0.119800000000000
C      -1.992800000000000     -1.725900000000000      0.562100000000000
C      -1.318700000000000      1.518100000000000      0.849600000000000
C      -2.089200000000000      1.898300000000000     -1.469900000000000
C      -0.147100000000000      2.445300000000000      0.782100000000000
C      -0.851900000000000     -2.324600000000000      0.171700000000000
C       2.889600000000000      0.394800000000000      0.480000000000000
C       3.629500000000000     -0.287800000000000     -0.667900000000000
C       1.663900000000000      1.138200000000000      0.000700000000000
C      -0.419000000000000     -2.525800000000000     -1.252600000000000
C       0.122200000000000     -2.844900000000000      1.195000000000000
C       4.877300000000000     -1.004600000000000     -0.178900000000000
H      -4.229600000000000      0.660300000000000     -0.585200000000000
H      -3.760600000000000      0.368000000000000      1.072000000000000
H      -3.990400000000000     -1.749100000000000     -0.136500000000000
H      -2.857700000000000     -1.231200000000000     -1.367300000000000
H      -2.188500000000000     -1.655100000000000      1.631900000000000
H      -1.458100000000000      1.032800000000000      1.814900000000000
H      -2.877300000000000      2.649500000000000     -1.588300000000000
H      -2.219900000000000      1.147300000000000     -2.257600000000000
H      -1.132700000000000      2.378200000000000     -1.673900000000000
H      -0.259500000000000      3.189600000000000      1.578900000000000
H      -0.037400000000000      3.021900000000000     -0.138400000000000
H       2.573000000000000     -0.353500000000000      1.214500000000000
H       3.552900000000000      1.116200000000000      0.970200000000000
H       2.967600000000000     -1.008200000000000     -1.162900000000000
H       3.912600000000000      0.453500000000000     -1.424800000000000
H      -0.273200000000000     -3.592700000000000     -1.452300000000000
H      -1.131700000000000     -2.153700000000000     -1.990300000000000
H       0.530800000000000     -2.010700000000000     -1.430900000000000
H       1.099600000000000     -2.369800000000000      1.064600000000000
H      -0.205700000000000     -2.651000000000000      2.221700000000000
H       0.245300000000000     -3.927100000000000      1.083700000000000
H       4.623500000000000     -1.777000000000000      0.554300000000000
H       5.575400000000000     -0.302700000000000      0.288400000000000
H       5.390300000000000     -1.486900000000000     -1.016700000000000
