41

O      -5.758200000000000      0.017800000000000      0.021600000000000
N      -3.565200000000000      0.284400000000000      0.787500000000000
C      -0.109700000000000      0.117900000000000     -0.559700000000000
C       2.289500000000000      0.391900000000000      0.172700000000000
C       1.064200000000000      1.085300000000000     -0.420000000000000
C      -0.528200000000000     -0.427000000000000      0.811700000000000
C      -1.290800000000000      0.798500000000000     -1.262700000000000
C       2.727500000000000     -0.783800000000000     -0.711200000000000
C       3.438900000000000      1.391000000000000      0.362000000000000
C      -2.919300000000000     -0.719300000000000     -0.027400000000000
C      -1.737700000000000     -1.357500000000000      0.708400000000000
C      -2.494600000000000     -0.137300000000000     -1.378000000000000
C       3.983500000000000     -1.460700000000000     -0.167200000000000
C       4.693800000000000      0.710400000000000      0.904000000000000
C       5.120900000000000     -0.463000000000000      0.027800000000000
C      -4.914600000000000      0.551300000000000      0.730600000000000
H       0.165600000000000     -0.724200000000000     -1.203400000000000
H       2.058200000000000      0.010700000000000      1.173600000000000
H       0.776400000000000      1.933500000000000      0.214600000000000
H       1.315000000000000      1.503100000000000     -1.403700000000000
H      -0.753700000000000      0.400600000000000      1.495300000000000
H       0.275300000000000     -1.010000000000000      1.271600000000000
H      -0.991700000000000      1.121300000000000     -2.267300000000000
H      -1.582300000000000      1.703800000000000     -0.715300000000000
H       2.914800000000000     -0.437700000000000     -1.735400000000000
H       1.957600000000000     -1.558700000000000     -0.764700000000000
H       3.134000000000000      2.187200000000000      1.051500000000000
H       3.676000000000000      1.873100000000000     -0.595100000000000
H      -3.664300000000000     -1.502400000000000     -0.217200000000000
H      -1.434900000000000     -2.265000000000000      0.170000000000000
H      -2.040900000000000     -1.672800000000000      1.714100000000000
H      -3.327800000000000      0.400200000000000     -1.846400000000000
H      -2.233300000000000     -0.962300000000000     -2.053300000000000
H       4.302700000000000     -2.252700000000000     -0.854200000000000
H       3.752900000000000     -1.942800000000000      0.791000000000000
H       4.504400000000000      0.354500000000000      1.924200000000000
H       5.509800000000000      1.439300000000000      0.966800000000000
H       5.981200000000000     -0.968100000000000      0.481100000000000
H       5.448700000000000     -0.088000000000000     -0.949700000000000
H      -2.991300000000000      0.858600000000000      1.398100000000000
H      -5.178400000000000      1.359100000000000      1.433000000000000
