41

O       1.304800000000000     -0.585100000000000     -1.328000000000000
N       3.194900000000000      0.404300000000000     -0.404700000000000
C       4.975400000000000     -1.223300000000000      0.149500000000000
C      -4.567100000000000     -0.734000000000000     -0.274700000000000
C      -3.672700000000000      0.268900000000000      0.464700000000000
C       4.176400000000000     -0.509000000000000     -0.946300000000000
C      -5.072500000000000     -1.912900000000000      0.560600000000000
C      -3.228100000000000      1.482500000000000     -0.358300000000000
C       5.760800000000000     -0.233100000000000      1.012300000000000
C       4.036200000000000     -2.050200000000000      1.028500000000000
C      -6.019400000000000     -2.831500000000000     -0.195600000000000
C      -2.421100000000000      2.467300000000000      0.438600000000000
C       1.836800000000000      0.284200000000000     -0.645500000000000
C      -1.085400000000000      2.415000000000000      0.551200000000000
C       1.057700000000000      1.357200000000000      0.033700000000000
C      -0.276700000000000      1.399600000000000     -0.085900000000000
H       5.689000000000000     -1.900900000000000     -0.335200000000000
H      -5.433700000000000     -0.193000000000000     -0.675600000000000
H      -4.017700000000000     -1.122500000000000     -1.141500000000000
H      -4.211200000000000      0.621700000000000      1.354200000000000
H      -2.788100000000000     -0.265100000000000      0.834600000000000
H       3.686900000000000     -1.242800000000000     -1.596000000000000
H       4.849100000000000      0.086000000000000     -1.573900000000000
H      -4.215400000000000     -2.496200000000000      0.917000000000000
H      -5.588000000000000     -1.530700000000000      1.449600000000000
H      -2.716500000000000      1.162000000000000     -1.272000000000000
H      -4.122600000000000      2.010100000000000     -0.715500000000000
H       5.103100000000000      0.421500000000000      1.593200000000000
H       6.407900000000000      0.395300000000000      0.391500000000000
H       6.400200000000000     -0.770000000000000      1.721600000000000
H       4.611200000000000     -2.638900000000000      1.751700000000000
H       3.450400000000000     -2.750300000000000      0.423300000000000
H       3.340000000000000     -1.422500000000000      1.594800000000000
H       3.538400000000000      1.192700000000000      0.135900000000000
H      -6.908000000000000     -2.286800000000000     -0.529900000000000
H      -5.527700000000000     -3.259600000000000     -1.074800000000000
H      -6.345800000000000     -3.654500000000000      0.447800000000000
H      -2.962000000000000      3.251400000000000      0.961600000000000
H      -0.580700000000000      3.165500000000000      1.153600000000000
H       1.596200000000000      2.097300000000000      0.617600000000000
H      -0.770600000000000      0.633000000000000     -0.672300000000000
