41

O       4.480800000000000      1.263300000000000     -1.538000000000000
N       5.296900000000000      1.920800000000000      0.509500000000000
C      -2.067400000000000     -2.211400000000000     -0.834300000000000
C      -2.634800000000000     -0.826900000000000     -1.181100000000000
C      -0.911500000000000     -2.214400000000000      0.191700000000000
C      -3.224100000000000      0.000900000000000     -0.037800000000000
C      -3.808500000000000      1.341700000000000     -0.485100000000000
C      -0.471000000000000     -3.656800000000000      0.470200000000000
C      -4.380500000000000      2.116700000000000      0.702800000000000
C       0.294300000000000     -1.443300000000000     -0.300400000000000
C       1.233900000000000     -0.778300000000000      0.405700000000000
C      -5.006000000000000      3.430300000000000      0.261900000000000
C       1.128500000000000     -0.757000000000000      1.912100000000000
C       2.355200000000000     -0.070400000000000     -0.208300000000000
C       3.314000000000000      0.604200000000000      0.445700000000000
C       4.400100000000000      1.280500000000000     -0.314600000000000
H      -1.737300000000000     -2.691500000000000     -1.765300000000000
H      -2.887100000000000     -2.829200000000000     -0.444900000000000
H      -1.856300000000000     -0.235300000000000     -1.678700000000000
H      -3.419700000000000     -0.974900000000000     -1.934500000000000
H      -1.298600000000000     -1.785200000000000      1.120700000000000
H      -4.004400000000000     -0.588200000000000      0.459600000000000
H      -2.445700000000000      0.190700000000000      0.710400000000000
H      -4.597100000000000      1.166600000000000     -1.226700000000000
H      -3.029300000000000      1.937900000000000     -0.975200000000000
H      -0.096900000000000     -4.146000000000000     -0.436700000000000
H      -1.311700000000000     -4.249400000000000      0.847300000000000
H       0.322400000000000     -3.694900000000000      1.224700000000000
H      -5.140300000000000      1.512100000000000      1.211500000000000
H      -3.587100000000000      2.321000000000000      1.431000000000000
H       0.420000000000000     -1.463000000000000     -1.384300000000000
H      -5.406800000000000      3.968500000000000      1.126600000000000
H      -4.265700000000000      4.073000000000000     -0.225100000000000
H      -5.827000000000000      3.257600000000000     -0.441200000000000
H       0.323700000000000     -1.367600000000000      2.325400000000000
H       0.966200000000000      0.267100000000000      2.266700000000000
H       2.051200000000000     -1.140000000000000      2.363500000000000
H       2.384400000000000     -0.116000000000000     -1.295600000000000
H       3.333700000000000      0.684300000000000      1.526900000000000
H       5.213700000000000      1.923300000000000      1.521400000000000
H       6.089000000000000      2.422900000000000      0.122000000000000
