41

O      -0.862900000000000      1.658000000000000      1.019400000000000
N       0.059200000000000      0.769800000000000     -0.925900000000000
C       2.294100000000000      0.438100000000000     -0.041600000000000
C       2.439200000000000     -0.910400000000000     -0.759600000000000
C       3.664800000000000      1.095600000000000      0.168300000000000
C      -2.215300000000000      0.250700000000000     -0.356300000000000
C       3.407000000000000     -1.837500000000000     -0.027700000000000
C       4.630600000000000      0.165200000000000      0.898500000000000
C       1.363900000000000      1.366500000000000     -0.820100000000000
C       4.765400000000000     -1.177200000000000      0.186700000000000
C      -2.203700000000000     -1.161200000000000      0.233400000000000
C      -3.425500000000000      1.051100000000000      0.130400000000000
C      -3.515500000000000     -1.894700000000000     -0.033400000000000
C      -4.734500000000000      0.312400000000000     -0.135900000000000
C      -4.718100000000000     -1.093600000000000      0.456300000000000
C      -0.948800000000000      0.967100000000000      0.007600000000000
H       1.854400000000000      0.248300000000000      0.947900000000000
H       2.798300000000000     -0.752000000000000     -1.784600000000000
H       1.470900000000000     -1.418300000000000     -0.836600000000000
H       3.551000000000000      2.021800000000000      0.744300000000000
H       4.096700000000000      1.375200000000000     -0.801300000000000
H      -2.282700000000000      0.175000000000000     -1.450200000000000
H       3.534000000000000     -2.763400000000000     -0.599900000000000
H       2.979800000000000     -2.117800000000000      0.943000000000000
H       4.274400000000000      0.001200000000000      1.923000000000000
H       5.614300000000000      0.642100000000000      0.975100000000000
H       1.732400000000000      1.541700000000000     -1.836600000000000
H       1.275000000000000      2.335000000000000     -0.315500000000000
H       5.410500000000000     -1.842100000000000      0.771900000000000
H       5.255700000000000     -1.028100000000000     -0.783300000000000
H      -2.027700000000000     -1.113700000000000      1.316200000000000
H      -1.371600000000000     -1.739300000000000     -0.187100000000000
H      -3.450800000000000      2.031200000000000     -0.361500000000000
H      -3.349100000000000      1.247200000000000      1.208100000000000
H      -3.497900000000000     -2.872500000000000      0.460800000000000
H      -3.615600000000000     -2.082400000000000     -1.109500000000000
H      -4.904300000000000      0.250800000000000     -1.217900000000000
H      -5.571000000000000      0.880600000000000      0.286200000000000
H      -5.643200000000000     -1.616900000000000      0.189700000000000
H      -4.691600000000000     -1.028200000000000      1.551000000000000
H      -0.119500000000000      0.174500000000000     -1.729500000000000
