41

O       2.523100000000000     -2.027300000000000     -0.003100000000000
N       1.371500000000000      0.347000000000000      1.075100000000000
C       0.017800000000000      0.169100000000000      0.552900000000000
C      -1.775600000000000      1.182900000000000     -0.912000000000000
C      -1.507200000000000     -1.321800000000000     -0.804100000000000
C      -2.419700000000000     -0.065100000000000      1.182300000000000
C      -0.346700000000000      1.356100000000000     -0.365400000000000
C      -0.078900000000000     -1.141800000000000     -0.258000000000000
C      -0.989300000000000      0.111500000000000      1.723700000000000
C      -1.856600000000000     -0.129200000000000     -1.710600000000000
C      -2.763800000000000      1.120900000000000      0.265200000000000
C      -2.496800000000000     -1.370500000000000      0.372400000000000
C       2.337300000000000      0.421500000000000     -0.010300000000000
C       2.249900000000000     -0.889500000000000     -0.812600000000000
C       3.732000000000000      0.607400000000000      0.603000000000000
C       2.003100000000000      1.628800000000000     -0.898600000000000
H      -2.038400000000000      2.027300000000000     -1.561000000000000
H      -1.581900000000000     -2.255100000000000     -1.376300000000000
H      -3.128400000000000     -0.105100000000000      2.017000000000000
H       0.074100000000000      1.389200000000000     -1.351800000000000
H      -0.305800000000000      2.318800000000000      0.158800000000000
H       0.170200000000000     -2.027900000000000      0.336100000000000
H       0.309000000000000     -1.173800000000000     -1.248400000000000
H      -0.933900000000000      1.030200000000000      2.322500000000000
H      -0.747300000000000     -0.720600000000000      2.398100000000000
H      -1.184200000000000     -0.093500000000000     -2.576800000000000
H      -2.870300000000000     -0.255100000000000     -2.111400000000000
H      -2.727700000000000      2.057800000000000      0.834700000000000
H      -3.788800000000000      1.017000000000000     -0.111600000000000
H      -2.268200000000000     -2.226600000000000      1.019100000000000
H      -3.517100000000000     -1.518200000000000     -0.002400000000000
H       1.603400000000000     -0.429900000000000      1.694600000000000
H       3.239300000000000     -0.835200000000000     -1.309500000000000
H       1.798000000000000     -1.003700000000000     -1.806400000000000
H       4.511400000000000      0.654700000000000     -0.166500000000000
H       3.991900000000000     -0.215100000000000      1.279700000000000
H       3.787900000000000      1.536500000000000      1.183600000000000
H       1.605500000000000      2.522400000000000     -0.408100000000000
H       2.985500000000000      2.053200000000000     -1.180600000000000
H       1.684700000000000      1.388200000000000     -1.920600000000000
H       2.556800000000000     -2.798300000000000     -0.594600000000000
