41

O       2.169800000000000     -0.028800000000000      1.840900000000000
N       3.152800000000000     -0.747900000000000     -0.139200000000000
C       5.600900000000000     -0.388100000000000     -0.199300000000000
C      -4.865000000000000     -0.401600000000000     -0.274200000000000
C      -4.918400000000000      1.120400000000000     -0.091400000000000
C       4.424900000000000     -1.157300000000000      0.412900000000000
C      -6.128400000000000     -1.163000000000000      0.134400000000000
C      -3.677200000000000      1.882200000000000     -0.567600000000000
C       5.706800000000000     -0.625200000000000     -1.707400000000000
C       5.453700000000000      1.107300000000000      0.084400000000000
C      -6.054100000000000     -2.656200000000000     -0.142600000000000
C      -2.437200000000000      1.520100000000000      0.199100000000000
C       2.131100000000000     -0.216300000000000      0.629400000000000
C      -1.341800000000000      0.991500000000000     -0.366500000000000
C       0.935600000000000      0.117600000000000     -0.194500000000000
C      -0.153600000000000      0.645400000000000      0.381500000000000
H       6.524700000000000     -0.745200000000000      0.272300000000000
H      -4.653900000000000     -0.615400000000000     -1.329800000000000
H      -4.020900000000000     -0.805900000000000      0.297800000000000
H      -5.786500000000000      1.507400000000000     -0.639600000000000
H      -5.098800000000000      1.343900000000000      0.968100000000000
H       4.418200000000000     -1.033300000000000      1.501300000000000
H       4.528800000000000     -2.228400000000000      0.206700000000000
H      -6.314900000000000     -1.005400000000000      1.203200000000000
H      -6.989400000000000     -0.747700000000000     -0.402600000000000
H      -3.537700000000000      1.709200000000000     -1.641700000000000
H      -3.853200000000000      2.957600000000000     -0.444000000000000
H       4.851000000000000     -0.213400000000000     -2.252000000000000
H       5.771100000000000     -1.695600000000000     -1.929100000000000
H       6.609600000000000     -0.148700000000000     -2.105100000000000
H       6.338700000000000      1.650200000000000     -0.265400000000000
H       5.355200000000000      1.293000000000000      1.159300000000000
H       4.582500000000000      1.539900000000000     -0.418400000000000
H       3.000100000000000     -0.908700000000000     -1.130500000000000
H      -5.909000000000000     -2.848500000000000     -1.210300000000000
H      -5.223700000000000     -3.113300000000000      0.404700000000000
H      -6.980600000000000     -3.147700000000000      0.169700000000000
H      -2.455600000000000      1.714900000000000      1.269200000000000
H      -1.330100000000000      0.803200000000000     -1.437100000000000
H       0.972800000000000     -0.075200000000000     -1.262300000000000
H      -0.176600000000000      0.833900000000000      1.451700000000000
