41

O      -2.160900000000000      0.966100000000000     -1.620500000000000
N      -0.677000000000000      0.329300000000000      0.057000000000000
C       1.401700000000000     -1.017300000000000     -0.219600000000000
C       0.482000000000000      0.090400000000000     -0.776500000000000
C       1.272100000000000      1.392100000000000     -0.978200000000000
C       2.105700000000000     -0.568800000000000      1.069400000000000
C       1.987500000000000      1.848800000000000      0.303900000000000
C       2.879000000000000      0.732500000000000      0.862100000000000
C       0.674100000000000     -2.346000000000000     -0.006500000000000
C      -2.950400000000000      0.927700000000000      0.595200000000000
C      -4.253500000000000      0.198000000000000      0.449200000000000
C      -3.277100000000000     -0.215200000000000      1.511200000000000
C      -1.894900000000000      0.746400000000000     -0.444700000000000
C       2.808200000000000      3.110700000000000      0.040800000000000
C      -0.051900000000000     -2.767700000000000     -1.280900000000000
C       1.655300000000000     -3.426800000000000      0.438000000000000
H       2.187700000000000     -1.181800000000000     -0.972500000000000
H       0.120300000000000     -0.197200000000000     -1.770800000000000
H       2.015100000000000      1.235800000000000     -1.771700000000000
H       0.603600000000000      2.189000000000000     -1.328100000000000
H       2.832500000000000     -1.314700000000000      1.405800000000000
H       1.382500000000000     -0.442300000000000      1.883800000000000
H       1.230400000000000      2.096600000000000      1.059400000000000
H       3.317400000000000      1.047900000000000      1.816600000000000
H       3.716100000000000      0.547400000000000      0.176500000000000
H      -0.078500000000000     -2.241500000000000      0.785700000000000
H      -3.003900000000000      1.928800000000000      1.011300000000000
H      -4.387800000000000     -0.467400000000000     -0.394800000000000
H      -5.155600000000000      0.707800000000000      0.764800000000000
H      -3.521800000000000      0.018500000000000      2.540200000000000
H      -2.769100000000000     -1.162600000000000      1.378200000000000
H      -0.572800000000000      0.235600000000000      1.062900000000000
H       3.587300000000000      2.931100000000000     -0.707800000000000
H       3.294200000000000      3.456100000000000      0.959300000000000
H       2.168000000000000      3.920600000000000     -0.324300000000000
H      -0.451500000000000     -3.783100000000000     -1.178000000000000
H      -0.908600000000000     -2.124000000000000     -1.500300000000000
H       0.619100000000000     -2.764100000000000     -2.146600000000000
H       2.005000000000000     -3.268300000000000      1.462300000000000
H       1.173300000000000     -4.411200000000000      0.430600000000000
H       2.525400000000000     -3.481500000000000     -0.225000000000000
