41

O      -0.362600000000000     -2.015000000000000     -0.621000000000000
N      -1.555600000000000     -0.292700000000000      0.378500000000000
C       3.360800000000000     -0.092800000000000      0.383000000000000
C       4.670200000000000     -0.780800000000000      0.009800000000000
C       3.495100000000000      1.259500000000000     -0.309800000000000
C       5.713000000000000      0.328700000000000      0.105400000000000
C       4.954600000000000      1.642800000000000     -0.088400000000000
C       2.130800000000000     -0.869500000000000     -0.052800000000000
C      -2.872500000000000     -0.828900000000000      0.115600000000000
C      -3.853900000000000     -0.449900000000000      1.229800000000000
C      -3.387500000000000     -0.377900000000000     -1.255500000000000
C      -4.228500000000000      1.032000000000000      1.200200000000000
C      -3.762700000000000      1.103800000000000     -1.280800000000000
C      -4.748400000000000      1.454200000000000     -0.170500000000000
C       0.845100000000000     -0.169000000000000      0.376700000000000
C      -0.398200000000000     -0.944500000000000     -0.020000000000000
H       3.337100000000000      0.057500000000000      1.471100000000000
H       4.631500000000000     -1.163500000000000     -1.017600000000000
H       4.903800000000000     -1.620600000000000      0.671500000000000
H       2.818900000000000      2.015900000000000      0.100100000000000
H       3.294300000000000      1.172400000000000     -1.384700000000000
H       6.500800000000000      0.199000000000000     -0.643700000000000
H       6.192600000000000      0.318900000000000      1.091000000000000
H       5.053900000000000      2.263400000000000      0.809800000000000
H       5.347700000000000      2.220400000000000     -0.931200000000000
H       2.130400000000000     -1.009700000000000     -1.141400000000000
H       2.162400000000000     -1.874600000000000      0.386900000000000
H      -2.782200000000000     -1.922300000000000      0.101300000000000
H      -3.430800000000000     -0.698100000000000      2.210700000000000
H      -4.768300000000000     -1.046400000000000      1.117600000000000
H      -4.275400000000000     -0.969300000000000     -1.513600000000000
H      -2.639600000000000     -0.575600000000000     -2.032700000000000
H      -3.360400000000000      1.645400000000000      1.468500000000000
H      -4.996100000000000      1.228300000000000      1.957700000000000
H      -4.201700000000000      1.353700000000000     -2.253400000000000
H      -2.858900000000000      1.716200000000000     -1.174900000000000
H      -5.707000000000000      0.957300000000000     -0.365000000000000
H      -4.942000000000000      2.532700000000000     -0.175500000000000
H       0.774600000000000      0.822800000000000     -0.084400000000000
H       0.833000000000000     -0.038200000000000      1.465400000000000
H      -1.479100000000000      0.619200000000000      0.819300000000000
