41

O      -0.407400000000000     -2.630000000000000     -1.022800000000000
N      -1.101200000000000     -0.895600000000000      0.359900000000000
C       1.785600000000000     -0.364500000000000      0.454800000000000
C       3.097300000000000     -0.295800000000000      1.248400000000000
C       2.027300000000000     -0.052700000000000     -1.028300000000000
C      -2.459400000000000     -0.757500000000000     -0.170500000000000
C       3.801400000000000      1.045800000000000      1.058200000000000
C       2.733400000000000      1.288300000000000     -1.214700000000000
C       1.127400000000000     -1.733300000000000      0.618000000000000
C      -3.416600000000000     -0.292800000000000      0.935100000000000
C      -2.472600000000000      0.228000000000000     -1.346700000000000
C       4.032300000000000      1.356200000000000     -0.417500000000000
C      -3.161600000000000      1.150100000000000      1.373200000000000
C      -2.215100000000000      1.671900000000000     -0.913800000000000
C      -3.179200000000000      2.109100000000000      0.185700000000000
C      -0.191600000000000     -1.827300000000000     -0.118900000000000
H       1.125500000000000      0.415300000000000      0.855700000000000
H       3.769100000000000     -1.103400000000000      0.930400000000000
H       2.897400000000000     -0.450300000000000      2.315500000000000
H       1.081200000000000     -0.021200000000000     -1.580300000000000
H       2.635000000000000     -0.845700000000000     -1.482700000000000
H      -2.776800000000000     -1.743700000000000     -0.529200000000000
H       4.761200000000000      1.036100000000000      1.587100000000000
H       3.196600000000000      1.842400000000000      1.508800000000000
H       2.066200000000000      2.099000000000000     -0.896500000000000
H       2.945400000000000      1.448400000000000     -2.277900000000000
H       0.941600000000000     -1.945700000000000      1.678000000000000
H       1.784400000000000     -2.526700000000000      0.241400000000000
H      -3.335900000000000     -0.953900000000000      1.806500000000000
H      -4.448200000000000     -0.373900000000000      0.569400000000000
H      -3.451300000000000      0.177300000000000     -1.840800000000000
H      -1.725700000000000     -0.061700000000000     -2.095500000000000
H       4.476500000000000      2.352600000000000     -0.519900000000000
H       4.752700000000000      0.640500000000000     -0.832300000000000
H      -2.199000000000000      1.225500000000000      1.891800000000000
H      -3.928800000000000      1.451400000000000      2.095700000000000
H      -2.317800000000000      2.337700000000000     -1.778300000000000
H      -1.182700000000000      1.773400000000000     -0.557400000000000
H      -4.195900000000000      2.160700000000000     -0.223400000000000
H      -2.920600000000000      3.119000000000000      0.523200000000000
H      -0.824700000000000     -0.276100000000000      1.114100000000000
