41

O      -0.353100000000000     -2.138000000000000     -0.305600000000000
N       1.025900000000000     -0.269200000000000     -0.143100000000000
C       2.243300000000000     -1.110600000000000     -0.121400000000000
C       1.191900000000000      1.201800000000000     -0.054400000000000
C      -1.439800000000000     -0.044500000000000     -0.226200000000000
C       3.493100000000000     -0.351700000000000     -0.575600000000000
C       2.450700000000000      1.579000000000000      0.734500000000000
C       3.730500000000000      0.950000000000000      0.186800000000000
C      -2.554400000000000     -0.701700000000000     -1.043200000000000
C      -1.880800000000000      0.214400000000000      1.216200000000000
C      -0.216900000000000     -0.912800000000000     -0.238700000000000
C      -3.849600000000000      0.103300000000000     -0.980200000000000
C      -3.177800000000000      1.017200000000000      1.274000000000000
C      -4.285900000000000      0.356000000000000      0.459800000000000
C       2.446500000000000     -1.752500000000000      1.256900000000000
C       1.176400000000000      1.859400000000000     -1.439900000000000
H       2.080200000000000     -1.932200000000000     -0.831200000000000
H       0.350400000000000      1.620500000000000      0.501100000000000
H      -1.247700000000000      0.914700000000000     -0.709400000000000
H       3.390800000000000     -0.121200000000000     -1.643200000000000
H       4.382400000000000     -0.989300000000000     -0.500100000000000
H       2.318800000000000      1.253400000000000      1.774200000000000
H       2.567000000000000      2.668800000000000      0.778600000000000
H       4.420000000000000      0.771600000000000      1.020900000000000
H       4.239100000000000      1.659700000000000     -0.477100000000000
H      -2.760700000000000     -1.714900000000000     -0.673700000000000
H      -2.240900000000000     -0.810600000000000     -2.088900000000000
H      -1.106900000000000      0.735800000000000      1.788800000000000
H      -2.032900000000000     -0.744400000000000      1.730600000000000
H      -4.641900000000000     -0.430300000000000     -1.517200000000000
H      -3.707800000000000      1.063000000000000     -1.492300000000000
H      -2.997000000000000      2.029500000000000      0.892100000000000
H      -3.500100000000000      1.121700000000000      2.316200000000000
H      -5.179000000000000      0.991000000000000      0.468600000000000
H      -4.565300000000000     -0.595500000000000      0.928800000000000
H       3.329600000000000     -2.400200000000000      1.254800000000000
H       2.577500000000000     -1.005600000000000      2.045100000000000
H       1.585500000000000     -2.368100000000000      1.537000000000000
H       2.043100000000000      1.579200000000000     -2.044100000000000
H       0.291400000000000      1.581900000000000     -2.019200000000000
H       1.183500000000000      2.950400000000000     -1.342500000000000
