42

N      -2.952800000000000      0.077700000000000     -0.262100000000000
N       2.841700000000000     -0.577700000000000      0.082900000000000
C      -4.179700000000000     -1.893800000000000     -0.022300000000000
C      -2.863500000000000     -2.031200000000000      0.736800000000000
C      -4.334000000000000     -0.403100000000000     -0.284100000000000
C      -2.328600000000000     -0.612600000000000      0.866200000000000
C      -2.870400000000000      1.525700000000000     -0.142000000000000
C       1.949200000000000      0.449700000000000     -0.440200000000000
C       1.991500000000000      1.692000000000000      0.448300000000000
C       4.220500000000000     -0.087900000000000      0.129000000000000
C       2.761700000000000     -1.792700000000000     -0.729900000000000
C       1.068300000000000      2.787200000000000     -0.087300000000000
C      -1.473600000000000      1.970100000000000     -0.123300000000000
C      -0.330100000000000      2.337300000000000     -0.106900000000000
C       5.155100000000000     -1.116800000000000      0.731000000000000
C       1.344600000000000     -2.323700000000000     -0.796100000000000
H      -4.123600000000000     -2.451000000000000     -0.964900000000000
H      -5.022800000000000     -2.290300000000000      0.552500000000000
H      -3.007500000000000     -2.496900000000000      1.716900000000000
H      -2.169700000000000     -2.658700000000000      0.164800000000000
H      -4.823300000000000     -0.211100000000000     -1.244200000000000
H      -4.936400000000000      0.051900000000000      0.512700000000000
H      -2.642200000000000     -0.188400000000000      1.829100000000000
H      -1.235100000000000     -0.607700000000000      0.821600000000000
H      -3.382000000000000      1.883500000000000      0.760700000000000
H      -3.373200000000000      1.990300000000000     -0.998900000000000
H       0.918000000000000      0.089400000000000     -0.441400000000000
H       2.208700000000000      0.715500000000000     -1.473600000000000
H       1.711500000000000      1.432900000000000      1.477600000000000
H       2.983300000000000      2.151200000000000      0.478800000000000
H       4.583500000000000      0.212700000000000     -0.861800000000000
H       4.315600000000000      0.774900000000000      0.792600000000000
H       3.141000000000000     -1.629800000000000     -1.746700000000000
H       3.357200000000000     -2.594000000000000     -0.280200000000000
H       1.157300000000000      3.676200000000000      0.547700000000000
H       1.380100000000000      3.081800000000000     -1.096100000000000
H       4.760000000000000     -1.527900000000000      1.666400000000000
H       5.369600000000000     -1.941100000000000      0.043900000000000
H       6.118800000000000     -0.648800000000000      0.963200000000000
H       0.876500000000000     -2.365200000000000      0.193500000000000
H       0.707100000000000     -1.741400000000000     -1.468700000000000
H       1.354900000000000     -3.346000000000000     -1.191400000000000
