42

N      -2.749100000000000      0.303300000000000     -0.738100000000000
N       1.699600000000000      0.402000000000000      0.248300000000000
C      -1.541900000000000      1.135100000000000     -0.471800000000000
C      -2.649500000000000     -0.909500000000000      0.112200000000000
C      -0.732700000000000      0.357800000000000      0.533500000000000
C       0.571100000000000      0.825800000000000      1.076600000000000
C      -1.355900000000000     -0.779100000000000      0.853600000000000
C       1.754900000000000     -1.064300000000000      0.166100000000000
C       2.957300000000000      0.952500000000000      0.772900000000000
C      -1.970600000000000      2.504600000000000      0.072600000000000
C      -0.793600000000000      1.310400000000000     -1.798600000000000
C       2.900700000000000     -1.523700000000000     -0.737000000000000
C       4.142400000000000      0.559000000000000     -0.110200000000000
C      -3.830400000000000     -0.977400000000000      1.086900000000000
C      -2.638300000000000     -2.142700000000000     -0.795400000000000
C       4.235900000000000     -0.954000000000000     -0.271600000000000
H      -2.797500000000000      0.046600000000000     -1.723200000000000
H       0.691700000000000      0.454900000000000      2.104400000000000
H       0.555600000000000      1.918600000000000      1.158400000000000
H      -0.986300000000000     -1.509900000000000      1.559900000000000
H       0.852400000000000     -1.480500000000000     -0.290200000000000
H       1.867200000000000     -1.513300000000000      1.161800000000000
H       3.135600000000000      0.610100000000000      1.800800000000000
H       2.901600000000000      2.047600000000000      0.799000000000000
H      -1.113500000000000      3.172700000000000      0.210900000000000
H      -2.660600000000000      3.003500000000000     -0.618400000000000
H      -2.481200000000000      2.411800000000000      1.038600000000000
H       0.091300000000000      1.945500000000000     -1.675800000000000
H      -0.455300000000000      0.350100000000000     -2.206900000000000
H      -1.428700000000000      1.787600000000000     -2.554700000000000
H       2.707000000000000     -1.203400000000000     -1.768900000000000
H       2.950000000000000     -2.618400000000000     -0.746200000000000
H       5.072000000000000      0.942400000000000      0.325200000000000
H       4.035400000000000      1.025800000000000     -1.097700000000000
H      -3.762800000000000     -1.862200000000000      1.730600000000000
H      -3.865600000000000     -0.096600000000000      1.739500000000000
H      -4.784500000000000     -1.028800000000000      0.549600000000000
H      -1.799400000000000     -2.121800000000000     -1.502100000000000
H      -2.543800000000000     -3.063300000000000     -0.207200000000000
H      -3.563500000000000     -2.218200000000000     -1.379000000000000
H       4.513100000000000     -1.408000000000000      0.687700000000000
H       5.024100000000000     -1.208100000000000     -0.988600000000000
