42

N      -0.510900000000000     -0.249200000000000     -0.009200000000000
N      -3.329800000000000      0.392500000000000      0.014200000000000
C       0.903200000000000      0.102700000000000     -0.122700000000000
C       1.631800000000000     -0.248100000000000      1.191800000000000
C       1.551500000000000     -0.648800000000000     -1.305100000000000
C       1.769700000000000     -1.753600000000000      1.428000000000000
C       1.686900000000000     -2.153800000000000     -1.067100000000000
C       0.974500000000000      1.617000000000000     -0.367000000000000
C       2.418300000000000     -2.452900000000000      0.237600000000000
C      -1.229700000000000      0.074300000000000     -1.247700000000000
C      -1.127900000000000      0.432900000000000      1.134900000000000
C      -2.713200000000000     -0.291400000000000     -1.129000000000000
C      -2.611800000000000      0.068200000000000      1.253000000000000
C       2.392900000000000      2.074500000000000     -0.471800000000000
C      -4.744300000000000      0.042600000000000      0.127400000000000
C       2.938800000000000      2.993300000000000      0.332700000000000
H       1.238600000000000      0.249300000000000      2.082600000000000
H       2.665200000000000      0.121700000000000      1.136200000000000
H       2.583800000000000     -0.304600000000000     -1.441700000000000
H       1.085600000000000     -0.454000000000000     -2.274900000000000
H       0.783500000000000     -2.191700000000000      1.621600000000000
H       2.374200000000000     -1.929100000000000      2.325500000000000
H       2.231900000000000     -2.609400000000000     -1.902000000000000
H       0.693600000000000     -2.617900000000000     -1.048500000000000
H       0.510800000000000      2.220800000000000      0.415700000000000
H       0.530000000000000      1.922900000000000     -1.318800000000000
H       3.463200000000000     -2.129700000000000      0.151100000000000
H       2.434700000000000     -3.534900000000000      0.410700000000000
H      -0.866900000000000     -0.503600000000000     -2.101100000000000
H      -1.207200000000000      1.133900000000000     -1.517400000000000
H      -1.098500000000000      1.524100000000000      1.088900000000000
H      -0.696700000000000      0.119300000000000      2.088500000000000
H      -3.220100000000000      0.006000000000000     -2.055500000000000
H      -2.818500000000000     -1.381100000000000     -1.036000000000000
H      -2.711600000000000     -0.999100000000000      1.494100000000000
H      -3.043600000000000      0.631700000000000      2.089500000000000
H       3.002400000000000      1.722400000000000     -1.298600000000000
H      -5.210600000000000      0.589800000000000      0.954100000000000
H      -4.894300000000000     -1.030000000000000      0.295700000000000
H      -5.284600000000000      0.327600000000000     -0.782200000000000
H       3.961500000000000      3.319800000000000      0.178200000000000
H       2.385500000000000      3.432100000000000      1.155500000000000
