42

N       4.016300000000000      0.284100000000000      0.275500000000000
N       5.853300000000000     -0.378800000000000     -0.753600000000000
C      -2.322400000000000      0.039200000000000      0.580600000000000
C      -0.993400000000000      0.134700000000000     -0.172200000000000
C      -3.547700000000000      0.037300000000000     -0.339700000000000
C       0.193300000000000      0.110000000000000      0.795100000000000
C      -4.875800000000000     -0.036200000000000      0.418200000000000
C       1.522500000000000      0.237500000000000      0.045700000000000
C      -6.100900000000000     -0.036800000000000     -0.502100000000000
C       2.738700000000000      0.223400000000000      0.975200000000000
C      -7.431300000000000     -0.035800000000000      0.252000000000000
C       4.748900000000000     -0.774000000000000     -0.160300000000000
C      -8.611700000000001     -0.047300000000000     -0.707400000000000
C       4.676400000000000      1.425800000000000     -0.049700000000000
C       5.814600000000000      0.991500000000000     -0.687700000000000
C       4.319200000000000     -2.174500000000000      0.030300000000000
H      -2.330700000000000     -0.875900000000000      1.185700000000000
H      -2.401900000000000      0.881100000000000      1.279500000000000
H      -0.973000000000000      1.060200000000000     -0.760200000000000
H      -0.910900000000000     -0.700100000000000     -0.878500000000000
H      -3.534900000000000      0.945100000000000     -0.955400000000000
H      -3.478300000000000     -0.813600000000000     -1.028600000000000
H       0.101000000000000      0.932300000000000      1.514700000000000
H       0.183700000000000     -0.825300000000000      1.367800000000000
H      -4.943100000000000      0.817200000000000      1.104400000000000
H      -4.890800000000000     -0.941900000000000      1.036800000000000
H       1.525900000000000      1.167100000000000     -0.537600000000000
H       1.606800000000000     -0.580300000000000     -0.680600000000000
H      -6.054100000000000     -0.915800000000000     -1.156900000000000
H      -6.058100000000000      0.844800000000000     -1.154000000000000
H       2.740800000000000     -0.673400000000000      1.604200000000000
H       2.705200000000000      1.084900000000000      1.653400000000000
H      -7.487500000000000     -0.914000000000000      0.905400000000000
H      -7.494000000000000      0.851100000000000      0.892900000000000
H      -9.553200000000000     -0.046400000000000     -0.149200000000000
H      -8.599700000000000      0.835200000000000     -1.354900000000000
H      -8.593400000000001     -0.939700000000000     -1.341400000000000
H       4.303100000000000      2.412900000000000      0.185100000000000
H       6.607400000000000      1.595900000000000     -1.103600000000000
H       4.300400000000000     -2.436900000000000      1.092600000000000
H       3.326600000000000     -2.348900000000000     -0.395200000000000
H       5.016000000000000     -2.857200000000000     -0.467100000000000
