42

N      -5.226700000000000     -0.334400000000000      0.941100000000000
N      -4.276200000000000     -0.973400000000000     -0.961600000000000
C       0.922200000000000      0.499800000000000     -0.385500000000000
C       2.269100000000000      0.829100000000000      0.262000000000000
C      -0.208800000000000      1.324000000000000      0.232300000000000
C       3.391900000000000     -0.023300000000000     -0.332200000000000
C      -1.560000000000000      0.970400000000000     -0.393000000000000
C       4.762200000000000      0.248900000000000      0.295600000000000
C      -2.695600000000000      1.772800000000000      0.249800000000000
C       5.911300000000000     -0.634900000000000     -0.198900000000000
C      -4.069300000000000      1.471400000000000     -0.359900000000000
C       7.263000000000000     -0.280100000000000      0.421100000000000
C      -4.508300000000000      0.041900000000000     -0.159500000000000
C       8.366099999999999     -1.190400000000000     -0.096700000000000
C      -5.468400000000000     -1.675100000000000      0.833800000000000
C      -4.872500000000000     -2.046700000000000     -0.348400000000000
H       0.973900000000000      0.694900000000000     -1.463600000000000
H       0.707200000000000     -0.568500000000000     -0.260100000000000
H       2.499100000000000      1.891600000000000      0.118200000000000
H       2.211000000000000      0.653600000000000      1.343000000000000
H      -0.246600000000000      1.141500000000000      1.313200000000000
H      -0.005400000000000      2.392400000000000      0.091300000000000
H       3.453400000000000      0.153900000000000     -1.412900000000000
H       3.147400000000000     -1.084500000000000     -0.199300000000000
H      -1.737100000000000     -0.103500000000000     -0.266100000000000
H      -1.531800000000000      1.170700000000000     -1.470800000000000
H       4.679900000000000      0.132500000000000      1.383900000000000
H       5.023300000000000      1.299800000000000      0.117300000000000
H      -2.491100000000000      2.844000000000000      0.132200000000000
H      -2.720500000000000      1.569400000000000      1.327800000000000
H       5.980600000000000     -0.548500000000000     -1.290300000000000
H       5.672900000000000     -1.683100000000000      0.020300000000000
H      -4.051300000000000      1.685400000000000     -1.435400000000000
H      -4.814500000000000      2.144100000000000      0.082000000000000
H       7.204900000000000     -0.366800000000000      1.512100000000000
H       7.515200000000000      0.761400000000000      0.190600000000000
H       8.157500000000001     -2.237100000000000      0.146300000000000
H       9.324299999999999     -0.920600000000000      0.358200000000000
H       8.469200000000001     -1.103200000000000     -1.183000000000000
H      -5.524600000000000      0.267000000000000      1.697800000000000
H      -6.022700000000000     -2.221500000000000      1.582900000000000
H      -4.842000000000000     -3.032600000000000     -0.788800000000000
