42

N       4.966900000000000      1.229400000000000      0.006900000000000
N      -4.966800000000000      1.229500000000000     -0.006900000000000
C       1.273800000000000      0.334900000000000      0.007300000000000
C      -1.273700000000000      0.334900000000000     -0.007200000000000
C      -0.007300000000000     -1.455900000000000      1.259000000000000
C       0.007200000000000     -1.455900000000000     -1.259000000000000
C      -0.000100000000000      1.213200000000000     -0.000200000000000
C       1.246700000000000     -0.565800000000000      1.263700000000000
C       1.261100000000000     -0.566100000000000     -1.249100000000000
C      -1.261000000000000     -0.565900000000000      1.249300000000000
C      -1.246700000000000     -0.566100000000000     -1.263600000000000
C       0.000000000000000     -2.337100000000000      0.000000000000000
C       2.525700000000000      1.216700000000000      0.014300000000000
C      -2.525700000000000      1.216600000000000     -0.014600000000000
C       3.790300000000000      0.368800000000000     -0.018600000000000
C      -3.790300000000000      0.368800000000000      0.018900000000000
H      -0.012400000000000     -2.089900000000000      2.153000000000000
H       0.012300000000000     -2.089900000000000     -2.152900000000000
H      -0.004600000000000      1.870700000000000      0.879500000000000
H       0.004500000000000      1.870400000000000     -0.880200000000000
H       1.262600000000000      0.047500000000000      2.173700000000000
H       2.115100000000000     -1.230300000000000      1.311900000000000
H       2.127200000000000     -1.234700000000000     -1.284500000000000
H       1.289900000000000      0.046000000000000     -2.159500000000000
H      -2.126700000000000     -1.234900000000000      1.285000000000000
H      -1.289700000000000      0.046300000000000      2.159700000000000
H      -1.262900000000000      0.047100000000000     -2.173700000000000
H      -2.115100000000000     -1.230800000000000     -1.311500000000000
H       0.880600000000000     -2.991100000000000      0.005100000000000
H      -0.880500000000000     -2.991300000000000     -0.005100000000000
H       2.525900000000000      1.854500000000000      0.908200000000000
H       2.510200000000000      1.891700000000000     -0.851900000000000
H      -2.528300000000000      1.854200000000000     -0.908700000000000
H      -2.510300000000000      1.891900000000000      0.851400000000000
H       3.866100000000000     -0.232100000000000     -0.927000000000000
H       3.871000000000000     -0.300800000000000      0.839500000000000
H      -3.861300000000000     -0.234000000000000      0.926700000000000
H      -3.867800000000000     -0.295400000000000     -0.843800000000000
H       4.948000000000000      1.812200000000000      0.843200000000000
H       4.939000000000000      1.873100000000000     -0.783300000000000
H      -4.964300000000000      1.841000000000000      0.808600000000000
H      -5.807400000000000      0.658000000000000      0.067300000000000
