42

N      -4.936900000000000     -0.279800000000000      0.044700000000000
N      -6.774200000000000      0.671800000000000     -0.762200000000000
C       1.473200000000000     -0.574200000000000      0.043300000000000
C       2.697400000000000      0.345300000000000     -0.022600000000000
C       0.109900000000000      0.127500000000000      0.029400000000000
C       4.025300000000000     -0.413100000000000     -0.079100000000000
C      -1.112900000000000     -0.795000000000000      0.035800000000000
C       5.247500000000000      0.510700000000000     -0.065900000000000
C      -2.446100000000000     -0.042300000000000     -0.002800000000000
C       6.578900000000000     -0.245300000000000     -0.041000000000000
C      -3.656300000000000     -0.978600000000000      0.068200000000000
C       7.760800000000000      0.721200000000000      0.045400000000000
C       9.088699999999999     -0.019100000000000      0.037500000000000
C      -5.632200000000000      0.171900000000000      1.130800000000000
C      -5.661200000000000      0.043200000000000     -1.069000000000000
C      -6.762000000000000      0.755800000000000      0.607600000000000
H       1.541000000000000     -1.190500000000000      0.948600000000000
H       1.512100000000000     -1.268300000000000     -0.805900000000000
H       2.615600000000000      0.990900000000000     -0.905600000000000
H       2.691000000000000      1.005300000000000      0.853400000000000
H       0.058800000000000      0.768900000000000     -0.859600000000000
H       0.053600000000000      0.797200000000000      0.896700000000000
H       4.083600000000000     -1.094800000000000      0.778500000000000
H       4.051200000000000     -1.035800000000000     -0.981600000000000
H      -1.077900000000000     -1.422900000000000      0.934600000000000
H      -1.057000000000000     -1.471900000000000     -0.825500000000000
H       5.215100000000000      1.163600000000000     -0.946800000000000
H       5.189800000000000      1.163200000000000      0.814300000000000
H      -2.487300000000000      0.666700000000000      0.833700000000000
H      -2.499600000000000      0.557500000000000     -0.919900000000000
H       6.598900000000000     -0.926600000000000      0.818100000000000
H       6.665500000000000     -0.860600000000000     -0.944600000000000
H      -3.656000000000000     -1.676900000000000     -0.776900000000000
H      -3.633100000000000     -1.573100000000000      0.989000000000000
H       7.734200000000000      1.418400000000000     -0.800200000000000
H       7.687000000000000      1.319000000000000      0.961400000000000
H       9.161099999999999     -0.703500000000000      0.888700000000000
H       9.208200000000000     -0.600400000000000     -0.882300000000000
H       9.919000000000000      0.691100000000000      0.100800000000000
H      -5.277300000000000      0.045900000000000      2.144100000000000
H      -5.330500000000000     -0.201700000000000     -2.069100000000000
H      -7.566900000000000      1.232500000000000      1.147700000000000
