42

N       1.431300000000000      0.006600000000000     -0.184100000000000
N      -1.436700000000000      0.006800000000000      0.180000000000000
C       2.806200000000000      0.006600000000000      0.311800000000000
C      -2.803200000000000      0.006700000000000     -0.310600000000000
C      -0.724600000000000     -1.199000000000000     -0.260400000000000
C       0.718600000000000     -1.199200000000000      0.255200000000000
C      -0.724300000000000      1.212100000000000     -0.261200000000000
C       0.718500000000000      1.212300000000000      0.255700000000000
C       3.609800000000000     -1.191700000000000     -0.178800000000000
C       3.621800000000000      1.182500000000000     -0.212100000000000
C      -3.606000000000000     -1.191700000000000      0.181000000000000
C      -3.618100000000000      1.182500000000000      0.214600000000000
C       5.059000000000000     -0.774100000000000      0.056600000000000
C       5.066900000000000      0.756900000000000      0.034200000000000
C      -5.055600000000000     -0.774200000000000     -0.052200000000000
C      -5.063600000000000      0.756900000000000     -0.029600000000000
H       2.820800000000000      0.020800000000000      1.411800000000000
H      -2.823200000000000      0.021000000000000     -1.410700000000000
H      -0.726100000000000     -1.279200000000000     -1.356000000000000
H      -1.198600000000000     -2.103200000000000      0.136800000000000
H      -1.200500000000000      2.116000000000000      0.133700000000000
H      -0.724500000000000      1.291100000000000     -1.357000000000000
H       0.720300000000000     -1.280100000000000      1.350800000000000
H       1.194000000000000     -2.102500000000000     -0.142400000000000
H       1.196200000000000      2.115300000000000     -0.140000000000000
H       0.719000000000000      1.292100000000000      1.351300000000000
H       3.449600000000000     -1.366700000000000     -1.250500000000000
H       3.381100000000000     -2.118700000000000      0.356100000000000
H       3.401800000000000      2.126300000000000      0.296400000000000
H       3.462200000000000      1.329100000000000     -1.288100000000000
H      -3.444700000000000     -1.367200000000000      1.252500000000000
H      -3.379100000000000     -2.118900000000000     -0.354500000000000
H      -3.399900000000000      2.126600000000000     -0.294300000000000
H      -3.457300000000000      1.329400000000000      1.290400000000000
H       5.723800000000000     -1.196000000000000     -0.703900000000000
H       5.406700000000000     -1.131800000000000      1.032600000000000
H       5.419500000000000      1.139500000000000      0.999100000000000
H       5.735000000000000      1.149500000000000     -0.739100000000000
H      -5.719300000000000     -1.196200000000000      0.709200000000000
H      -5.404700000000000     -1.131800000000000     -1.027800000000000
H      -5.417600000000000      1.139500000000000     -0.993900000000000
H      -5.730600000000000      1.149300000000000      0.744600000000000
