42

N       0.256500000000000      0.033500000000000      0.787000000000000
N      -3.392600000000000     -0.117500000000000      0.108200000000000
C       2.169800000000000      0.222800000000000     -0.612300000000000
C       2.556000000000000     -0.233000000000000      0.787300000000000
C       0.741200000000000      0.717900000000000     -0.430200000000000
C       1.282900000000000     -0.930100000000000      1.224000000000000
C       3.205400000000000      1.198000000000000     -1.160000000000000
C       3.840900000000000     -1.051900000000000      0.741400000000000
C      -1.048700000000000     -0.583900000000000      0.612700000000000
C       4.601000000000000      0.667400000000000     -0.931800000000000
C       4.882000000000000     -0.350700000000000     -0.098100000000000
C      -2.091800000000000      0.471300000000000      0.275200000000000
C      -3.396300000000000     -1.109800000000000     -0.978200000000000
C      -4.414400000000000      0.906700000000000     -0.159800000000000
C      -4.741800000000000     -1.794900000000000     -1.099300000000000
C      -4.449900000000000      1.954400000000000      0.933700000000000
H       2.138100000000000     -0.655700000000000     -1.277100000000000
H       2.723300000000000      0.644100000000000      1.433000000000000
H       0.704200000000000      1.800800000000000     -0.270900000000000
H       0.170700000000000      0.481400000000000     -1.335900000000000
H       1.177500000000000     -1.900200000000000      0.721700000000000
H       1.250200000000000     -1.085600000000000      2.306700000000000
H       3.118500000000000      2.179000000000000     -0.678800000000000
H       3.038800000000000      1.343900000000000     -2.233000000000000
H       3.661800000000000     -2.048800000000000      0.322100000000000
H       4.221800000000000     -1.190300000000000      1.759400000000000
H      -0.947200000000000     -1.344100000000000     -0.167200000000000
H      -1.338900000000000     -1.096300000000000      1.539100000000000
H       5.409400000000000      1.137800000000000     -1.484200000000000
H       5.909000000000000     -0.692600000000000     -0.007200000000000
H      -2.082500000000000      1.177600000000000      1.113400000000000
H      -1.822300000000000      1.041500000000000     -0.621900000000000
H      -3.112700000000000     -0.663500000000000     -1.939500000000000
H      -2.698100000000000     -1.924800000000000     -0.773400000000000
H      -4.256500000000000      1.393300000000000     -1.130600000000000
H      -5.412600000000000      0.457500000000000     -0.171000000000000
H      -4.648800000000000     -2.678400000000000     -1.741200000000000
H      -5.498400000000000     -1.154800000000000     -1.563500000000000
H      -5.113300000000000     -2.137600000000000     -0.127400000000000
H      -5.357900000000000      2.559900000000000      0.831900000000000
H      -3.606900000000000      2.650000000000000      0.875500000000000
H      -4.472300000000000      1.502400000000000      1.931300000000000
