43

O       1.706000000000000      1.256100000000000      0.223100000000000
O       2.484600000000000     -0.117600000000000      1.904200000000000
C       3.458900000000000     -1.147400000000000     -1.070000000000000
C       3.708100000000000      0.086700000000000     -0.189100000000000
C      -2.397800000000000      1.283200000000000      0.217900000000000
C      -2.323500000000000      0.157100000000000     -0.821600000000000
C       3.251300000000000     -2.406200000000000     -0.224000000000000
C       2.237400000000000     -0.916600000000000     -1.961700000000000
C      -1.521000000000000      2.474000000000000     -0.109000000000000
C       2.580400000000000      0.361700000000000      0.782800000000000
C      -0.236200000000000      2.611800000000000      0.272500000000000
C       0.605900000000000      1.640500000000000      1.036800000000000
C      -3.192600000000000     -1.017000000000000     -0.464800000000000
C      -2.196200000000000      3.570600000000000     -0.892600000000000
C      -2.839600000000000     -2.149400000000000      0.172200000000000
C      -3.860800000000000     -3.224500000000000      0.433400000000000
C      -1.464800000000000     -2.463000000000000      0.689800000000000
H       4.338000000000000     -1.294200000000000     -1.709000000000000
H       3.880200000000000      0.977900000000000     -0.804900000000000
H       4.622600000000000     -0.046800000000000      0.401800000000000
H      -3.437900000000000      1.620800000000000      0.321300000000000
H      -2.135500000000000      0.889000000000000      1.207600000000000
H      -2.646600000000000      0.534200000000000     -1.800400000000000
H      -1.283700000000000     -0.159500000000000     -0.960900000000000
H       2.328200000000000     -2.363700000000000      0.363000000000000
H       3.188600000000000     -3.289800000000000     -0.868500000000000
H       4.090100000000000     -2.555600000000000      0.463800000000000
H       1.307400000000000     -0.864100000000000     -1.386400000000000
H       2.340100000000000      0.009500000000000     -2.537000000000000
H       2.130900000000000     -1.739500000000000     -2.677200000000000
H       0.284900000000000      3.526300000000000     -0.008800000000000
H       0.976300000000000      2.132500000000000      1.943500000000000
H       0.046300000000000      0.747400000000000      1.328900000000000
H      -4.232300000000000     -0.905300000000000     -0.770800000000000
H      -1.521100000000000      4.404200000000000     -1.113000000000000
H      -2.563800000000000      3.181700000000000     -1.847800000000000
H      -3.045500000000000      3.971400000000000     -0.329500000000000
H      -3.552300000000000     -4.162300000000000     -0.040200000000000
H      -4.850400000000000     -2.965600000000000      0.042200000000000
H      -3.964100000000000     -3.396000000000000      1.509900000000000
H      -1.506500000000000     -2.683700000000000      1.761700000000000
H      -0.757800000000000     -1.640000000000000      0.559100000000000
H      -1.057000000000000     -3.337600000000000      0.172500000000000
