43

O       0.738500000000000     -0.068900000000000      0.617400000000000
O       2.879700000000000     -0.926200000000000      0.636800000000000
C       0.220300000000000     -1.379300000000000      0.328600000000000
C      -1.315200000000000     -1.237000000000000      0.196600000000000
C      -1.786000000000000     -0.162400000000000     -0.789400000000000
C       0.593300000000000     -2.243500000000000      1.539600000000000
C       2.825400000000000      2.272100000000000     -0.152500000000000
C       2.472700000000000      1.430700000000000      1.083900000000000
C       0.838300000000000     -1.818100000000000     -0.982800000000000
C       2.093500000000000      0.004800000000000      0.745000000000000
C      -3.286000000000000     -0.054100000000000     -0.792500000000000
C       1.600700000000000      2.410500000000000     -1.058900000000000
C       3.983600000000000      1.653000000000000     -0.939000000000000
C      -4.053100000000000      0.731800000000000     -0.013700000000000
C       1.172200000000000     -3.061100000000000     -1.351000000000000
C      -3.424200000000000      1.653100000000000      0.997100000000000
C      -5.553600000000000      0.794700000000000     -0.065200000000000
H      -1.753400000000000     -2.207100000000000     -0.075000000000000
H      -1.717400000000000     -0.983300000000000      1.187700000000000
H      -1.469400000000000     -0.420800000000000     -1.807100000000000
H      -1.324000000000000      0.807000000000000     -0.578400000000000
H       1.629500000000000     -2.592700000000000      1.550800000000000
H      -0.024400000000000     -3.149700000000000      1.564000000000000
H       0.423400000000000     -1.704300000000000      2.479300000000000
H       3.125300000000000      3.270500000000000      0.188100000000000
H       1.660400000000000      1.896800000000000      1.655100000000000
H       3.328200000000000      1.385900000000000      1.769000000000000
H       0.982500000000000     -1.039900000000000     -1.731700000000000
H      -3.789400000000000     -0.708600000000000     -1.502600000000000
H       1.316000000000000      1.461300000000000     -1.522700000000000
H       0.740000000000000      2.794100000000000     -0.500900000000000
H       1.809500000000000      3.117400000000000     -1.869600000000000
H       3.711500000000000      0.694500000000000     -1.392400000000000
H       4.292300000000000      2.322500000000000     -1.749400000000000
H       4.852000000000000      1.493100000000000     -0.291400000000000
H       1.587400000000000     -3.248400000000000     -2.335300000000000
H       1.035900000000000     -3.908700000000000     -0.689600000000000
H      -3.896700000000000      1.507700000000000      1.975100000000000
H      -2.353200000000000      1.502800000000000      1.148200000000000
H      -3.577500000000000      2.695400000000000      0.697900000000000
H      -5.884900000000000      1.809800000000000     -0.306300000000000
H      -5.981500000000000      0.505600000000000      0.900100000000000
H      -5.959300000000000      0.120400000000000     -0.826600000000000
