43

O      -0.517600000000000      0.408800000000000     -0.365700000000000
O      -1.694400000000000     -1.573800000000000     -0.279400000000000
C       1.943600000000000      0.632100000000000     -0.516600000000000
C       3.094100000000000     -0.327500000000000     -0.085400000000000
C       2.349400000000000     -0.692400000000000      1.226600000000000
C       0.699300000000000     -0.306400000000000     -0.489700000000000
C       1.833700000000000      1.601800000000000      0.694100000000000
C       0.968500000000000     -1.194100000000000      0.739600000000000
C       2.102500000000000      0.678800000000000      1.894700000000000
C       2.110300000000000      1.363800000000000     -1.835200000000000
C       3.343100000000000     -1.527200000000000     -1.022100000000000
C       4.469200000000000      0.334300000000000      0.133900000000000
C      -1.656100000000000     -0.351100000000000     -0.267600000000000
C      -2.857300000000000      0.557900000000000     -0.140600000000000
C      -4.163700000000000     -0.228900000000000     -0.050200000000000
C      -5.363400000000000      0.702500000000000      0.117300000000000
C      -6.661300000000000     -0.078600000000000      0.246200000000000
H       2.860900000000000     -1.404300000000000      1.878700000000000
H       0.649400000000000     -0.906600000000000     -1.406700000000000
H       0.856600000000000      2.089100000000000      0.771000000000000
H       2.581100000000000      2.401800000000000      0.647800000000000
H       1.027800000000000     -2.248300000000000      0.447800000000000
H       0.212400000000000     -1.110700000000000      1.527400000000000
H       2.980500000000000      1.015500000000000      2.455800000000000
H       1.256900000000000      0.661100000000000      2.590200000000000
H       3.006900000000000      1.991900000000000     -1.831900000000000
H       2.196500000000000      0.662700000000000     -2.671500000000000
H       1.250700000000000      2.013200000000000     -2.032800000000000
H       3.776500000000000     -1.192200000000000     -1.971300000000000
H       4.051300000000000     -2.226600000000000     -0.562300000000000
H       2.452500000000000     -2.107400000000000     -1.270800000000000
H       4.909600000000000      0.636400000000000     -0.823200000000000
H       4.448500000000000      1.225900000000000      0.763900000000000
H       5.159800000000000     -0.371500000000000      0.609900000000000
H      -2.727100000000000      1.166300000000000      0.761500000000000
H      -2.882500000000000      1.216700000000000     -1.015800000000000
H      -4.290900000000000     -0.840300000000000     -0.952400000000000
H      -4.116600000000000     -0.924500000000000      0.797200000000000
H      -5.432500000000000      1.378500000000000     -0.742900000000000
H      -5.230400000000000      1.325200000000000      1.009600000000000
H      -6.840900000000000     -0.690200000000000     -0.643700000000000
H      -6.636600000000000     -0.739500000000000      1.118600000000000
H      -7.506300000000000      0.607100000000000      0.363500000000000
