43

O      -0.852000000000000      0.295200000000000     -0.322800000000000
O      -1.722600000000000      2.204000000000000      0.635400000000000
C       1.329400000000000     -0.635200000000000      0.388200000000000
C       2.766500000000000     -0.031700000000000      0.358400000000000
C       2.518900000000000      0.586700000000000     -1.043500000000000
C       0.435200000000000      0.622800000000000      0.170700000000000
C       1.285400000000000     -1.480900000000000     -0.916100000000000
C       1.245800000000000      1.445100000000000     -0.848300000000000
C       2.097600000000000     -0.625900000000000     -1.903500000000000
C       0.941200000000000     -1.437900000000000      1.615700000000000
C       3.073300000000000      1.005100000000000      1.458200000000000
C       3.921000000000000     -1.052700000000000      0.401600000000000
C      -1.857100000000000      1.178100000000000     -0.017400000000000
C      -3.166800000000000      0.668400000000000     -0.579900000000000
C      -3.525400000000000     -0.743600000000000     -0.091000000000000
C      -4.831700000000000     -1.206400000000000     -0.738900000000000
C      -3.658600000000000     -0.791100000000000      1.433200000000000
H       3.355000000000000      1.147000000000000     -1.468500000000000
H       0.344900000000000      1.166600000000000      1.119100000000000
H       1.751000000000000     -2.463900000000000     -0.783500000000000
H       0.268900000000000     -1.661500000000000     -1.280200000000000
H       0.707000000000000      1.615500000000000     -1.786500000000000
H       1.502000000000000      2.426000000000000     -0.433700000000000
H       1.501100000000000     -0.335400000000000     -2.774700000000000
H       2.968200000000000     -1.178300000000000     -2.272100000000000
H       1.604300000000000     -2.297500000000000      1.756200000000000
H       0.989000000000000     -0.827100000000000      2.522900000000000
H      -0.081900000000000     -1.818900000000000      1.525300000000000
H       3.123000000000000      0.522100000000000      2.440700000000000
H       4.044700000000000      1.478300000000000      1.272000000000000
H       2.347600000000000      1.816200000000000      1.541900000000000
H       4.875400000000000     -0.557600000000000      0.187500000000000
H       3.997600000000000     -1.507200000000000      1.395900000000000
H       3.827100000000000     -1.874400000000000     -0.311300000000000
H      -3.092400000000000      0.697100000000000     -1.673400000000000
H      -3.951900000000000      1.379400000000000     -0.294600000000000
H      -2.734900000000000     -1.445100000000000     -0.385100000000000
H      -5.665600000000000     -0.550000000000000     -0.467800000000000
H      -4.743300000000000     -1.209300000000000     -1.830400000000000
H      -5.084300000000000     -2.223800000000000     -0.422000000000000
H      -4.418500000000000     -0.086400000000000      1.787900000000000
H      -3.947600000000000     -1.794100000000000      1.765200000000000
H      -2.711500000000000     -0.545200000000000      1.923900000000000
