43

O      -1.020100000000000     -0.700900000000000      0.481000000000000
O      -3.063800000000000     -1.535000000000000      1.135900000000000
C       1.539500000000000     -1.630200000000000     -0.673500000000000
C       3.068200000000000     -1.467400000000000     -0.841500000000000
C       1.134400000000000     -1.694200000000000      0.811100000000000
C       3.696600000000000     -0.280500000000000     -0.096800000000000
C       1.088800000000000     -2.884800000000000     -1.432200000000000
C      -0.367300000000000     -1.836400000000000      1.035800000000000
C       3.174900000000000      1.046500000000000     -0.573300000000000
C       2.619600000000000      2.036000000000000      0.151800000000000
C       2.462000000000000      1.887700000000000      1.642300000000000
C       2.117400000000000      3.342900000000000     -0.392700000000000
C      -2.379900000000000     -0.674700000000000      0.600000000000000
C      -2.918600000000000      0.568100000000000     -0.031700000000000
C      -2.072500000000000      1.806300000000000     -0.000900000000000
C      -4.154100000000000      0.472000000000000     -0.556500000000000
C      -4.925200000000000      1.544400000000000     -1.258800000000000
H       1.050700000000000     -0.765700000000000     -1.140100000000000
H       3.566200000000000     -2.383000000000000     -0.495700000000000
H       3.301500000000000     -1.380300000000000     -1.911300000000000
H       1.450700000000000     -0.778000000000000      1.316500000000000
H       1.649300000000000     -2.529400000000000      1.300900000000000
H       3.605000000000000     -0.438100000000000      0.978200000000000
H       4.775600000000000     -0.293400000000000     -0.298800000000000
H       1.456700000000000     -3.796100000000000     -0.948800000000000
H      -0.001800000000000     -2.944500000000000     -1.495900000000000
H       1.466200000000000     -2.872500000000000     -2.460700000000000
H      -0.756900000000000     -2.757900000000000      0.591300000000000
H      -0.562100000000000     -1.867500000000000      2.114500000000000
H       3.277000000000000      1.214000000000000     -1.645100000000000
H       1.417600000000000      1.667900000000000      1.887400000000000
H       3.094900000000000      1.127500000000000      2.101000000000000
H       2.729300000000000      2.828800000000000      2.137500000000000
H       2.232500000000000      3.395400000000000     -1.480300000000000
H       2.672600000000000      4.179500000000000      0.043400000000000
H       1.054400000000000      3.468100000000000     -0.162800000000000
H      -2.653000000000000      2.721000000000000     -0.145700000000000
H      -1.575600000000000      1.905700000000000      0.970700000000000
H      -1.302400000000000      1.760600000000000     -0.777700000000000
H      -4.681200000000000     -0.479600000000000     -0.505000000000000
H      -5.273300000000000      1.168800000000000     -2.226500000000000
H      -4.341100000000000      2.446700000000000     -1.451500000000000
H      -5.802300000000000      1.820000000000000     -0.665600000000000
