43

O       2.007500000000000     -1.584900000000000     -0.046500000000000
O       1.525000000000000      0.225100000000000      1.300100000000000
C       3.516300000000000      0.238400000000000     -0.097400000000000
C       3.237500000000000      1.537700000000000     -0.866900000000000
C      -2.698400000000000     -1.435800000000000     -1.220900000000000
C      -1.612600000000000     -1.794700000000000     -0.228200000000000
C      -3.491200000000000     -0.178000000000000     -0.841900000000000
C       4.501500000000000      0.481900000000000      1.042400000000000
C       2.242000000000000     -0.345900000000000      0.488400000000000
C       2.279000000000000      1.332100000000000     -2.033000000000000
C      -0.298000000000000     -1.861500000000000     -0.515800000000000
C       0.825500000000000     -2.238100000000000      0.396600000000000
C      -2.619200000000000      1.041400000000000     -0.724600000000000
C      -2.097700000000000     -2.123700000000000      1.160600000000000
C      -2.505300000000000      1.884500000000000      0.319000000000000
C      -1.575600000000000      3.066400000000000      0.243300000000000
C      -3.236200000000000      1.755000000000000      1.624900000000000
H       3.961100000000000     -0.492800000000000     -0.784400000000000
H       2.813900000000000      2.294000000000000     -0.194500000000000
H       4.180900000000000      1.942900000000000     -1.251900000000000
H      -3.390300000000000     -2.282500000000000     -1.312500000000000
H      -2.260300000000000     -1.295900000000000     -2.218000000000000
H      -4.228900000000000      0.013200000000000     -1.631500000000000
H      -4.068900000000000     -0.371900000000000      0.065200000000000
H       4.691200000000000     -0.443600000000000      1.597100000000000
H       5.459000000000000      0.848200000000000      0.657700000000000
H       4.117000000000000      1.220000000000000      1.755200000000000
H       2.655600000000000      0.568200000000000     -2.720500000000000
H       2.164700000000000      2.265500000000000     -2.593300000000000
H       1.285500000000000      1.028600000000000     -1.688700000000000
H      -0.007400000000000     -1.649800000000000     -1.544600000000000
H       0.630100000000000     -2.021000000000000      1.451400000000000
H       1.008700000000000     -3.314300000000000      0.310300000000000
H      -2.033200000000000      1.256800000000000     -1.617800000000000
H      -1.404100000000000     -2.751800000000000      1.726100000000000
H      -2.277100000000000     -1.207900000000000      1.731400000000000
H      -3.037400000000000     -2.685200000000000      1.109800000000000
H      -2.135300000000000      3.998300000000000      0.374100000000000
H      -1.051700000000000      3.125600000000000     -0.716600000000000
H      -0.816900000000000      3.002100000000000      1.030200000000000
H      -2.519700000000000      1.625200000000000      2.443100000000000
H      -3.930800000000000      0.914600000000000      1.663700000000000
H      -3.817800000000000      2.662400000000000      1.819500000000000
