43

O      -0.867900000000000      0.171600000000000     -0.288700000000000
O      -2.065000000000000      0.540200000000000      1.648500000000000
C       1.443300000000000     -0.714800000000000     -0.237000000000000
C       2.750200000000000     -0.149500000000000      0.397600000000000
C       2.398400000000000      1.289200000000000     -0.066400000000000
C       0.339900000000000      0.144200000000000      0.451800000000000
C       1.552000000000000     -0.250700000000000     -1.717100000000000
C       0.992700000000000      1.536600000000000      0.532300000000000
C       2.200600000000000      1.138300000000000     -1.591400000000000
C       1.202300000000000     -2.207400000000000     -0.111200000000000
C       2.866200000000000     -0.306400000000000      1.927500000000000
C       4.067700000000000     -0.695800000000000     -0.187700000000000
C      -2.013700000000000      0.380100000000000      0.435800000000000
C      -3.223800000000000      0.354200000000000     -0.482300000000000
C      -4.187100000000000     -0.782600000000000     -0.111400000000000
C      -3.921800000000000      1.708700000000000     -0.395700000000000
C      -3.534100000000000     -2.155800000000000     -0.204700000000000
H       3.122200000000000      2.063100000000000      0.200000000000000
H       0.153000000000000     -0.251900000000000      1.457500000000000
H       2.184900000000000     -0.919400000000000     -2.311200000000000
H       0.584500000000000     -0.199300000000000     -2.226600000000000
H       0.433300000000000      2.304000000000000     -0.013400000000000
H       1.069800000000000      1.865100000000000      1.574400000000000
H       1.563200000000000      1.923300000000000     -2.011500000000000
H       3.156100000000000      1.171600000000000     -2.125300000000000
H       2.007000000000000     -2.782200000000000     -0.580800000000000
H       1.140700000000000     -2.514200000000000      0.937800000000000
H       0.262700000000000     -2.493300000000000     -0.596400000000000
H       2.007700000000000      0.058400000000000      2.494300000000000
H       2.999700000000000     -1.359900000000000      2.198300000000000
H       3.738200000000000      0.244400000000000      2.299600000000000
H       4.222500000000000     -1.737500000000000      0.115700000000000
H       4.122500000000000     -0.676400000000000     -1.278100000000000
H       4.919200000000000     -0.111800000000000      0.180700000000000
H      -2.883400000000000      0.208900000000000     -1.515500000000000
H      -5.055600000000000     -0.757500000000000     -0.780400000000000
H      -4.564100000000000     -0.642800000000000      0.909200000000000
H      -4.299100000000000      1.902600000000000      0.614600000000000
H      -3.230100000000000      2.519400000000000     -0.650000000000000
H      -4.767800000000000      1.755700000000000     -1.089200000000000
H      -4.271900000000000     -2.937000000000000      0.004300000000000
H      -3.130900000000000     -2.330400000000000     -1.207300000000000
H      -2.720200000000000     -2.265200000000000      0.518600000000000
