43

O       1.423600000000000      0.847300000000000      0.710800000000000
O       3.563300000000000      1.541000000000000      0.200600000000000
C       3.049700000000000     -1.723800000000000     -0.180000000000000
C       3.154400000000000     -0.726200000000000      0.984000000000000
C      -3.010400000000000      1.858200000000000     -0.107800000000000
C      -3.713500000000000      0.504100000000000     -0.270600000000000
C       1.634200000000000     -1.758300000000000     -0.762000000000000
C       4.050800000000000     -1.356200000000000     -1.276800000000000
C      -1.519800000000000      1.806900000000000     -0.369600000000000
C       2.779500000000000      0.687100000000000      0.592000000000000
C      -0.568500000000000      2.116800000000000      0.532900000000000
C       0.914700000000000      2.121900000000000      0.341500000000000
C      -3.167000000000000     -0.546100000000000      0.656500000000000
C      -1.128600000000000      1.404900000000000     -1.768700000000000
C      -2.689200000000000     -1.765000000000000      0.342200000000000
C      -2.189000000000000     -2.687000000000000      1.422300000000000
C      -2.584000000000000     -2.325700000000000     -1.047400000000000
H       3.297700000000000     -2.721400000000000      0.202100000000000
H       4.175400000000000     -0.702700000000000      1.383700000000000
H       2.515000000000000     -1.039800000000000      1.818500000000000
H      -3.465700000000000      2.583200000000000     -0.794100000000000
H      -3.198400000000000      2.240900000000000      0.904000000000000
H      -4.775200000000000      0.640600000000000     -0.028400000000000
H      -3.688000000000000      0.199300000000000     -1.319400000000000
H       1.378000000000000     -0.835500000000000     -1.292000000000000
H       1.543500000000000     -2.578900000000000     -1.482300000000000
H       0.891700000000000     -1.926300000000000      0.024500000000000
H       3.812800000000000     -0.398700000000000     -1.751200000000000
H       5.067400000000000     -1.295800000000000     -0.874100000000000
H       4.051100000000000     -2.120200000000000     -2.062100000000000
H      -0.897500000000000      2.393900000000000      1.533500000000000
H       1.211500000000000      2.377200000000000     -0.679900000000000
H       1.343700000000000      2.886500000000000      1.001100000000000
H      -3.192900000000000     -0.266700000000000      1.709500000000000
H      -0.057500000000000      1.431700000000000     -1.974000000000000
H      -1.453000000000000      0.381900000000000     -1.979600000000000
H      -1.609200000000000      2.071000000000000     -2.493700000000000
H      -2.772500000000000     -3.613500000000000      1.429400000000000
H      -2.262200000000000     -2.241200000000000      2.419900000000000
H      -1.138000000000000     -2.939800000000000      1.249500000000000
H      -1.534100000000000     -2.506600000000000     -1.299900000000000
H      -3.000200000000000     -1.677600000000000     -1.820100000000000
H      -3.119800000000000     -3.279200000000000     -1.107300000000000
