43

O       0.872500000000000      1.005300000000000      0.407200000000000
O       2.779700000000000      2.141500000000000     -0.221000000000000
C      -3.736800000000000      1.318900000000000      0.313600000000000
C       4.340800000000000     -0.206200000000000     -0.121400000000000
C      -4.235100000000000     -0.097200000000000     -0.003700000000000
C      -2.311500000000000      1.577400000000000     -0.127900000000000
C       2.854200000000000     -0.247600000000000      0.228500000000000
C       4.990900000000000     -1.578500000000000      0.049600000000000
C      -1.298300000000000      1.908600000000000      0.696200000000000
C      -3.400200000000000     -1.163600000000000      0.649600000000000
C       0.121200000000000      2.209600000000000      0.334300000000000
C      -2.072400000000000      1.475000000000000     -1.612700000000000
C       2.204400000000000      1.111400000000000      0.101800000000000
C       6.478400000000000     -1.532700000000000     -0.260700000000000
C      -2.788700000000000     -2.213000000000000      0.068400000000000
C      -2.802500000000000     -2.522300000000000     -1.401400000000000
C      -1.996600000000000     -3.186900000000000      0.899600000000000
H      -3.831600000000000      1.499500000000000      1.392500000000000
H      -4.396100000000000      2.048200000000000     -0.173600000000000
H       4.468500000000000      0.139200000000000     -1.154900000000000
H       4.849700000000000      0.524600000000000      0.519700000000000
H      -5.257500000000000     -0.192700000000000      0.383600000000000
H      -4.317700000000000     -0.225800000000000     -1.085400000000000
H       2.335600000000000     -0.939600000000000     -0.444400000000000
H       2.725600000000000     -0.589600000000000      1.261500000000000
H       4.850600000000000     -1.932100000000000      1.077800000000000
H       4.505900000000000     -2.305100000000000     -0.612500000000000
H      -1.515900000000000      1.963000000000000      1.762000000000000
H      -3.314300000000000     -1.060800000000000      1.731100000000000
H       0.219900000000000      2.670100000000000     -0.653100000000000
H       0.517300000000000      2.926600000000000      1.064200000000000
H      -1.053600000000000      1.700000000000000     -1.931800000000000
H      -2.283600000000000      0.462500000000000     -1.968200000000000
H      -2.735300000000000      2.167300000000000     -2.143200000000000
H       6.654100000000000     -1.211200000000000     -1.292200000000000
H       6.997900000000000     -0.839500000000000      0.408800000000000
H       6.922900000000000     -2.524800000000000     -0.133600000000000
H      -3.181100000000000     -3.536800000000000     -1.566600000000000
H      -3.427700000000000     -1.849800000000000     -1.990600000000000
H      -1.786100000000000     -2.466000000000000     -1.805200000000000
H      -0.954000000000000     -3.208900000000000      0.565700000000000
H      -1.998100000000000     -2.927200000000000      1.963500000000000
H      -2.414200000000000     -4.194600000000000      0.803600000000000
