43

O      -4.743200000000000      0.142100000000000      0.304800000000000
O      -3.535900000000000     -1.513700000000000     -0.753900000000000
C       3.955600000000000      0.286100000000000     -0.211700000000000
C       4.369800000000000     -0.936500000000000      0.618100000000000
C       5.055200000000000      1.356500000000000     -0.194200000000000
C       2.635000000000000      0.861100000000000      0.297200000000000
C       5.714900000000000     -1.497600000000000      0.162500000000000
C       6.399000000000000      0.791400000000000     -0.648700000000000
C       6.803300000000000     -0.428900000000000      0.172700000000000
C       1.442100000000000      0.036800000000000     -0.186200000000000
C       0.119600000000000      0.634800000000000      0.298000000000000
C      -1.073000000000000     -0.208500000000000     -0.163300000000000
C      -2.408000000000000      0.349500000000000      0.329600000000000
C      -3.597500000000000     -0.475800000000000     -0.109400000000000
C      -5.963100000000000     -0.508900000000000     -0.064900000000000
C      -7.110600000000000      0.288100000000000      0.460200000000000
C      -8.063400000000000      0.823600000000000     -0.310800000000000
H       3.827500000000000     -0.031400000000000     -1.255900000000000
H       3.618100000000000     -1.729500000000000      0.541300000000000
H       4.437100000000000     -0.664000000000000      1.679200000000000
H       5.159400000000000      1.766900000000000      0.818400000000000
H       4.777900000000000      2.191300000000000     -0.849000000000000
H       2.636000000000000      0.926300000000000      1.392200000000000
H       2.512900000000000      1.885800000000000     -0.077100000000000
H       6.008000000000000     -2.327700000000000      0.815300000000000
H       5.615000000000000     -1.907500000000000     -0.850000000000000
H       6.338800000000000      0.514600000000000     -1.708500000000000
H       7.171000000000000      1.564600000000000     -0.564300000000000
H       7.004000000000000     -0.122400000000000      1.206700000000000
H       7.735500000000000     -0.847700000000000     -0.223000000000000
H       1.440700000000000     -0.006900000000000     -1.282200000000000
H       1.521100000000000     -0.993400000000000      0.177900000000000
H       0.122100000000000      0.694600000000000      1.393100000000000
H       0.014300000000000      1.657900000000000     -0.082600000000000
H      -1.082500000000000     -0.262500000000000     -1.259300000000000
H      -0.955100000000000     -1.238000000000000      0.197800000000000
H      -2.539300000000000      1.366600000000000     -0.057100000000000
H      -2.409000000000000      0.385000000000000      1.425000000000000
H      -5.989300000000000     -1.509900000000000      0.380700000000000
H      -6.008300000000000     -0.602700000000000     -1.156400000000000
H      -7.168200000000000      0.432500000000000      1.535900000000000
H      -8.873900000000001      1.391600000000000      0.132700000000000
H      -8.053500000000000      0.707400000000000     -1.388900000000000
