44

O       0.661500000000000     -2.305200000000000      0.565200000000000
N      -4.335100000000000      0.052900000000000      0.372600000000000
C       0.554400000000000     -0.090800000000000     -0.516100000000000
C       2.231600000000000     -0.630900000000000      1.308200000000000
C       2.129500000000000      1.699100000000000      0.357700000000000
C       3.035100000000000     -0.191000000000000     -1.041100000000000
C       0.806800000000000     -0.904300000000000      0.783700000000000
C       0.716400000000000      1.413400000000000     -0.179700000000000
C       1.619600000000000     -0.472800000000000     -1.574800000000000
C       2.368700000000000      0.866600000000000      1.628500000000000
C       3.271200000000000     -1.012700000000000      0.236600000000000
C       3.163600000000000      1.305100000000000     -0.709800000000000
C      -0.848800000000000     -0.347800000000000     -1.079500000000000
C      -1.921400000000000     -0.017800000000000     -0.047900000000000
C      -3.316600000000000     -0.245500000000000     -0.627300000000000
C      -4.542000000000000      1.498000000000000      0.482600000000000
C      -5.594400000000000     -0.616300000000000      0.041100000000000
H       2.421400000000000     -1.226200000000000      2.209200000000000
H       2.228300000000000      2.765300000000000      0.590600000000000
H       3.776900000000000     -0.465700000000000     -1.799300000000000
H       0.103900000000000     -0.622100000000000      1.574500000000000
H       0.529100000000000      2.026400000000000     -1.070600000000000
H       0.009600000000000      1.742500000000000      0.588400000000000
H       1.531200000000000     -1.532700000000000     -1.845000000000000
H       1.456900000000000      0.098900000000000     -2.497800000000000
H       1.649700000000000      1.152200000000000      2.406000000000000
H       3.368700000000000      1.074200000000000      2.028900000000000
H       4.283300000000000     -0.827300000000000      0.617500000000000
H       3.212600000000000     -2.084100000000000      0.010600000000000
H       3.013500000000000      1.904100000000000     -1.616400000000000
H       4.176200000000000      1.523100000000000     -0.348500000000000
H      -1.006200000000000      0.258500000000000     -1.980900000000000
H      -0.946900000000000     -1.396100000000000     -1.388600000000000
H      -1.825100000000000     -0.651100000000000      0.839600000000000
H      -1.838800000000000      1.021400000000000      0.272000000000000
H       0.831000000000000     -2.753900000000000      1.410900000000000
H      -3.464400000000000      0.337100000000000     -1.546100000000000
H      -3.377300000000000     -1.303400000000000     -0.916800000000000
H      -3.643700000000000      2.015200000000000      0.832200000000000
H      -5.317900000000000      1.713700000000000      1.226600000000000
H      -4.853600000000000      1.946500000000000     -0.468000000000000
H      -5.460700000000000     -1.703700000000000      0.020400000000000
H      -5.988100000000000     -0.296700000000000     -0.930600000000000
H      -6.352500000000000     -0.411400000000000      0.805400000000000
