44

O       2.489900000000000      2.315900000000000      0.267800000000000
N       2.421000000000000      0.083100000000000     -0.382900000000000
C       3.188900000000000     -2.609800000000000      0.374900000000000
C       1.777600000000000     -2.292000000000000     -0.111500000000000
C       3.821200000000000     -1.384500000000000      1.029400000000000
C       1.756900000000000     -1.063900000000000     -1.021300000000000
C       3.782700000000000     -0.183300000000000      0.090600000000000
C      -2.791700000000000      1.139900000000000      1.053000000000000
C       1.892900000000000      1.364000000000000     -0.238000000000000
C      -3.284400000000000      0.182400000000000     -0.034100000000000
C      -2.666700000000000      2.592100000000000      0.577300000000000
C      -3.359300000000000     -1.254900000000000      0.486400000000000
C      -1.638500000000000      2.848500000000000     -0.530200000000000
C       0.521100000000000      1.603300000000000     -0.729300000000000
C      -3.820100000000000     -2.218900000000000     -0.606800000000000
C      -0.228200000000000      2.530900000000000     -0.122200000000000
C      -3.863300000000000     -3.652800000000000     -0.103100000000000
H       3.158500000000000     -3.439900000000000      1.089200000000000
H       3.805300000000000     -2.934400000000000     -0.472100000000000
H       1.132400000000000     -2.108300000000000      0.756900000000000
H       1.364100000000000     -3.155600000000000     -0.644000000000000
H       4.856700000000000     -1.605100000000000      1.310600000000000
H       3.276800000000000     -1.145700000000000      1.951400000000000
H       2.297900000000000     -1.270500000000000     -1.952400000000000
H       0.721200000000000     -0.850500000000000     -1.285700000000000
H       4.198300000000000      0.692400000000000      0.599200000000000
H       4.402600000000000     -0.369900000000000     -0.794600000000000
H      -3.495500000000000      1.113400000000000      1.894400000000000
H      -1.828100000000000      0.793800000000000      1.445300000000000
H      -2.607400000000000      0.209300000000000     -0.894800000000000
H      -4.272100000000000      0.502300000000000     -0.387000000000000
H      -2.417600000000000      3.216700000000000      1.445100000000000
H      -3.648100000000000      2.934900000000000      0.225900000000000
H      -2.372600000000000     -1.563200000000000      0.853300000000000
H      -4.050400000000000     -1.303700000000000      1.336500000000000
H      -1.676200000000000      3.912400000000000     -0.795900000000000
H      -1.919700000000000      2.303300000000000     -1.438400000000000
H       0.140200000000000      1.060500000000000     -1.583800000000000
H      -3.140500000000000     -2.161400000000000     -1.465100000000000
H      -4.816300000000000     -1.930500000000000     -0.961500000000000
H       0.156800000000000      3.089300000000000      0.727700000000000
H      -4.557100000000000     -3.752400000000000      0.737700000000000
H      -2.873100000000000     -3.982500000000000      0.227200000000000
H      -4.196500000000000     -4.324600000000000     -0.900200000000000
