44

O      -5.403300000000000      0.457400000000000      0.113100000000000
N      -3.284100000000000     -0.331600000000000     -0.439200000000000
C       0.230400000000000      0.309300000000000      0.571200000000000
C       2.582100000000000     -0.444100000000000      0.052300000000000
C       1.355800000000000     -0.656200000000000      0.938100000000000
C      -0.224000000000000      0.085800000000000     -0.876700000000000
C      -0.946500000000000      0.162800000000000      1.543700000000000
C       3.106600000000000      0.991800000000000      0.187500000000000
C       3.679700000000000     -1.461000000000000      0.393800000000000
C      -2.562300000000000      0.909800000000000     -0.276500000000000
C      -1.388000000000000      1.003000000000000     -1.254900000000000
C      -2.104200000000000      1.090500000000000      1.172800000000000
C       4.365000000000000      1.213400000000000     -0.648600000000000
C       4.937200000000000     -1.235200000000000     -0.442500000000000
C       5.450400000000000      0.195500000000000     -0.312500000000000
C      -4.647300000000000     -0.448200000000000     -0.228900000000000
C      -5.147400000000000     -1.843100000000000     -0.492800000000000
H       0.568100000000000      1.345600000000000      0.677600000000000
H       2.323800000000000     -0.625600000000000     -0.996900000000000
H       1.005700000000000     -1.692200000000000      0.842700000000000
H       1.631300000000000     -0.516000000000000      1.991400000000000
H      -0.512900000000000     -0.961700000000000     -1.025700000000000
H       0.582400000000000      0.297400000000000     -1.585300000000000
H      -0.618000000000000      0.392000000000000      2.564700000000000
H      -1.299000000000000     -0.876400000000000      1.552500000000000
H       3.323500000000000      1.217900000000000      1.239000000000000
H       2.372700000000000      1.725000000000000     -0.158900000000000
H       3.312300000000000     -2.480300000000000      0.224800000000000
H       3.937700000000000     -1.388700000000000      1.458100000000000
H      -3.263800000000000      1.720200000000000     -0.511800000000000
H      -1.024600000000000      2.038700000000000     -1.273000000000000
H      -1.721200000000000      0.767000000000000     -2.272900000000000
H      -2.938000000000000      0.923800000000000      1.865400000000000
H      -1.779800000000000      2.129300000000000      1.315500000000000
H       4.746300000000000      2.226900000000000     -0.479800000000000
H       4.113400000000000      1.140100000000000     -1.714000000000000
H       4.718800000000000     -1.450700000000000     -1.495600000000000
H       5.718700000000000     -1.936600000000000     -0.128800000000000
H       6.310500000000000      0.340700000000000     -0.975700000000000
H       5.804200000000000      0.364500000000000      0.712000000000000
H      -2.754900000000000     -1.167400000000000     -0.670200000000000
H      -6.197400000000000     -1.921000000000000     -0.197500000000000
H      -5.056900000000000     -2.069800000000000     -1.558700000000000
H      -4.565200000000000     -2.566600000000000      0.085200000000000
