44

O       0.158300000000000     -1.904000000000000     -0.750200000000000
N      -4.384100000000000      0.500200000000000     -0.235200000000000
C       0.842900000000000      0.403900000000000     -0.590500000000000
C       2.165900000000000      0.152700000000000     -1.398000000000000
C       2.702000000000000      1.647300000000000      0.334000000000000
C       2.910600000000000     -0.925000000000000      0.713300000000000
C       0.383600000000000     -0.843700000000000      0.191200000000000
C       1.177100000000000      1.586000000000000      0.347500000000000
C       2.974000000000000      1.429300000000000     -1.151700000000000
C       2.982900000000000     -1.013700000000000     -0.813600000000000
C       3.321700000000000      0.502700000000000      1.171300000000000
C       1.482100000000000     -1.299400000000000      1.179400000000000
C      -0.949300000000000     -0.640100000000000      0.919300000000000
C      -2.029900000000000     -0.153700000000000     -0.040200000000000
C      -3.363200000000000      0.015500000000000      0.686300000000000
C      -4.895000000000000     -0.595100000000000     -1.061100000000000
C      -5.479700000000000      1.136900000000000      0.498100000000000
H       0.094900000000000      0.712700000000000     -1.328100000000000
H       1.979800000000000     -0.008100000000000     -2.464500000000000
H       3.071600000000000      2.617100000000000      0.680900000000000
H       3.610000000000000     -1.639800000000000      1.164000000000000
H       0.764100000000000      2.509800000000000     -0.077900000000000
H       0.778100000000000      1.496400000000000      1.360800000000000
H       4.039800000000000      1.322500000000000     -1.377600000000000
H       2.582300000000000      2.260100000000000     -1.751300000000000
H       2.602300000000000     -1.978900000000000     -1.165500000000000
H       4.025800000000000     -0.961100000000000     -1.150000000000000
H       3.076800000000000      0.642400000000000      2.231000000000000
H       4.414100000000000      0.582600000000000      1.092500000000000
H       1.313200000000000     -0.877300000000000      2.177600000000000
H       1.436500000000000     -2.390300000000000      1.295200000000000
H      -1.275100000000000     -1.591100000000000      1.361500000000000
H      -0.845600000000000      0.070200000000000      1.747100000000000
H      -0.118800000000000     -2.695900000000000     -0.258700000000000
H      -1.766100000000000      0.821700000000000     -0.462100000000000
H      -2.127400000000000     -0.858800000000000     -0.871500000000000
H      -3.667800000000000     -0.917900000000000      1.177300000000000
H      -3.204200000000000      0.750600000000000      1.487000000000000
H      -4.114700000000000     -1.027300000000000     -1.694400000000000
H      -5.665500000000000     -0.224400000000000     -1.747300000000000
H      -5.337700000000000     -1.397400000000000     -0.459400000000000
H      -5.114300000000000      1.998500000000000      1.068100000000000
H      -5.969000000000000      0.444000000000000      1.192300000000000
H      -6.235400000000000      1.521800000000000     -0.195800000000000
