44

O      -1.726400000000000      0.676600000000000     -1.920300000000000
N      -2.813800000000000     -0.464100000000000     -0.211200000000000
C      -5.267300000000000     -0.017100000000000     -0.148400000000000
C      -5.534000000000000     -0.617900000000000      1.245200000000000
C      -4.079800000000000     -0.658400000000000     -0.882200000000000
C      -5.086800000000000      1.500700000000000     -0.033700000000000
C       5.199600000000000     -0.569300000000000      0.221800000000000
C       5.324800000000000      0.945500000000000      0.427000000000000
C      -5.727300000000000     -2.127400000000000      1.232200000000000
C       6.444200000000000     -1.268500000000000     -0.330200000000000
C       4.099700000000000      1.627300000000000      1.045200000000000
C       6.295600000000000     -2.778000000000000     -0.437600000000000
C      -1.742100000000000      0.190700000000000     -0.794000000000000
C       2.876100000000000      1.530900000000000      0.179400000000000
C      -0.566200000000000      0.248000000000000      0.118900000000000
C       1.738000000000000      0.934700000000000      0.565100000000000
C       0.565900000000000      0.846400000000000     -0.277300000000000
H      -6.159900000000000     -0.196700000000000     -0.762700000000000
H      -4.716100000000000     -0.369700000000000      1.932300000000000
H      -6.438800000000000     -0.156900000000000      1.661000000000000
H      -4.019200000000000     -0.247800000000000     -1.896800000000000
H      -4.221300000000000     -1.737700000000000     -0.995600000000000
H      -4.242600000000000      1.761700000000000      0.613200000000000
H      -4.913100000000000      1.947300000000000     -1.018400000000000
H      -5.985400000000000      1.964200000000000      0.387600000000000
H       4.938700000000000     -1.027800000000000      1.184300000000000
H       4.361900000000000     -0.775200000000000     -0.455700000000000
H       5.555400000000000      1.415900000000000     -0.537600000000000
H       6.186800000000000      1.139400000000000      1.077700000000000
H      -6.054300000000000     -2.469900000000000      2.219400000000000
H      -4.796500000000000     -2.652000000000000      0.998300000000000
H      -6.489000000000000     -2.421700000000000      0.503400000000000
H      -2.712100000000000     -0.867600000000000      0.715500000000000
H       7.300700000000000     -1.044300000000000      0.316600000000000
H       6.678400000000000     -0.860000000000000     -1.320300000000000
H       4.326000000000000      2.689200000000000      1.199400000000000
H       3.911500000000000      1.200100000000000      2.037700000000000
H       6.101100000000000     -3.222100000000000      0.543700000000000
H       5.468300000000000     -3.041800000000000     -1.104000000000000
H       7.211800000000000     -3.223000000000000     -0.838000000000000
H       2.944100000000000      1.984300000000000     -0.807100000000000
H       1.676800000000000      0.487000000000000      1.553900000000000
H      -0.652900000000000     -0.202200000000000      1.103000000000000
H       0.638400000000000      1.293700000000000     -1.265300000000000
