44

O       1.658800000000000     -0.471100000000000      1.935400000000000
N       2.678000000000000     -0.934900000000000     -0.101900000000000
C       5.363000000000000      0.388000000000000     -0.658100000000000
C       4.980600000000000     -0.392300000000000      0.615500000000000
C       3.916700000000000     -1.469500000000000      0.418000000000000
C       6.388400000000000      1.488700000000000     -0.383100000000000
C       5.913400000000000     -0.578700000000000     -1.710300000000000
C      -5.313900000000000     -0.260500000000000     -0.398800000000000
C      -5.320700000000000      1.219500000000000      0.003700000000000
C      -6.615200000000000     -1.023800000000000     -0.140100000000000
C      -4.039300000000000      1.993900000000000     -0.322300000000000
C      -6.583400000000000     -2.462500000000000     -0.631100000000000
C      -2.837800000000000      1.476300000000000      0.415900000000000
C       1.651900000000000     -0.479900000000000      0.708800000000000
C      -1.743600000000000      0.993600000000000     -0.191600000000000
C       0.495700000000000      0.016400000000000     -0.088900000000000
C      -0.592600000000000      0.496600000000000      0.528900000000000
H       4.467200000000000      0.870500000000000     -1.068000000000000
H       4.620400000000000      0.325100000000000      1.364400000000000
H       5.877300000000000     -0.859900000000000      1.041800000000000
H       4.254600000000000     -2.252300000000000     -0.267100000000000
H       3.712400000000000     -1.951300000000000      1.381100000000000
H       7.322100000000000      1.071400000000000      0.009000000000000
H       6.000800000000000      2.201000000000000      0.352800000000000
H       6.621300000000000      2.044700000000000     -1.297400000000000
H       6.751000000000000     -1.164400000000000     -1.316500000000000
H       5.144500000000000     -1.271000000000000     -2.065600000000000
H       6.272800000000000     -0.029400000000000     -2.587600000000000
H      -4.503000000000000     -0.776200000000000      0.130100000000000
H      -5.076400000000000     -0.326400000000000     -1.468300000000000
H      -6.156900000000000      1.715600000000000     -0.504800000000000
H      -5.527200000000000      1.293300000000000      1.079300000000000
H      -7.443700000000000     -0.501800000000000     -0.633300000000000
H      -6.830300000000000     -1.016400000000000      0.934800000000000
H      -4.182100000000000      3.045800000000000     -0.047100000000000
H      -3.871500000000000      1.973800000000000     -1.406000000000000
H       2.578100000000000     -0.896100000000000     -1.112200000000000
H      -6.410800000000000     -2.502800000000000     -1.711100000000000
H      -5.787300000000000     -3.026300000000000     -0.134700000000000
H      -7.535800000000000     -2.958000000000000     -0.419100000000000
H      -2.883800000000000      1.513800000000000      1.502100000000000
H      -1.704100000000000      0.962800000000000     -1.277600000000000
H       0.560400000000000     -0.020800000000000     -1.172000000000000
H      -0.643500000000000      0.528300000000000      1.614400000000000
