44

O      -3.270900000000000      1.507500000000000     -1.001700000000000
N      -4.349900000000000      0.524700000000000      0.804800000000000
C       1.817600000000000      0.537300000000000     -0.283500000000000
C       0.575300000000000      0.151400000000000      0.522000000000000
C       3.090000000000000     -0.025800000000000      0.352300000000000
C      -0.700400000000000      0.688200000000000     -0.134400000000000
C       4.328800000000000      0.331900000000000     -0.471600000000000
C      -1.955100000000000      0.346700000000000      0.667900000000000
C       5.598300000000000     -0.260600000000000      0.149500000000000
C      -3.241200000000000      0.859200000000000      0.040800000000000
C      -5.695000000000000      0.912500000000000      0.447900000000000
C       6.857800000000000      0.051000000000000     -0.660700000000000
C      -6.385000000000000     -0.123600000000000     -0.433100000000000
C      -6.523500000000000     -1.482900000000000      0.256100000000000
C      -7.267500000000000     -2.477200000000000     -0.621600000000000
C       8.065799999999999     -0.533200000000000     -0.061400000000000
C       9.055000000000000     -1.007300000000000      0.426600000000000
H       1.721300000000000      0.158100000000000     -1.308200000000000
H       1.890600000000000      1.629600000000000     -0.348300000000000
H       0.511300000000000     -0.940200000000000      0.604300000000000
H       0.659900000000000      0.549100000000000      1.540600000000000
H       3.198200000000000      0.367400000000000      1.370400000000000
H       3.006700000000000     -1.116400000000000      0.433800000000000
H      -0.625900000000000      1.777400000000000     -0.244600000000000
H      -0.792200000000000      0.277700000000000     -1.147900000000000
H       4.427000000000000      1.422000000000000     -0.538200000000000
H       4.212900000000000     -0.046600000000000     -1.494400000000000
H      -2.040400000000000     -0.741900000000000      0.772400000000000
H      -1.876100000000000      0.773200000000000      1.675400000000000
H       5.716400000000000      0.124100000000000      1.171000000000000
H       5.484400000000000     -1.348800000000000      0.239000000000000
H      -5.661700000000000      1.875500000000000     -0.073400000000000
H      -6.250800000000000      1.054000000000000      1.380800000000000
H      -7.379300000000000      0.251800000000000     -0.703500000000000
H      -5.822900000000000     -0.246400000000000     -1.367200000000000
H       6.981500000000000      1.137500000000000     -0.740800000000000
H       6.739800000000000     -0.331100000000000     -1.681600000000000
H      -4.222400000000000     -0.017100000000000      1.654700000000000
H      -7.062900000000000     -1.366300000000000      1.203200000000000
H      -5.535200000000000     -1.892900000000000      0.492800000000000
H      -6.738000000000000     -2.639700000000000     -1.565700000000000
H      -7.355900000000000     -3.441300000000000     -0.111100000000000
H      -8.276899999999999     -2.120400000000000     -0.850300000000000
H       9.932399999999999     -1.427900000000000      0.859500000000000
