44

O      -0.757400000000000     -2.086900000000000     -0.607800000000000
N      -1.888800000000000     -0.314700000000000      0.376200000000000
C       3.033400000000000     -0.270300000000000      0.346100000000000
C       4.287400000000000     -1.059300000000000     -0.054100000000000
C       3.053900000000000      1.136200000000000     -0.267300000000000
C       1.768900000000000     -1.020900000000000     -0.067600000000000
C      -3.224100000000000     -0.810500000000000      0.126300000000000
C       5.566000000000000     -0.304000000000000      0.301500000000000
C       4.334600000000000      1.887800000000000      0.088500000000000
C       5.578800000000000      1.096700000000000     -0.302700000000000
C      -4.186700000000000     -0.386000000000000      1.240400000000000
C      -3.731100000000000     -0.359500000000000     -1.247700000000000
C      -4.512500000000000      1.106800000000000      1.194700000000000
C      -4.057700000000000      1.133400000000000     -1.289500000000000
C      -5.025600000000000      1.529300000000000     -0.178700000000000
C       0.515400000000000     -0.269600000000000      0.361400000000000
C      -0.754700000000000     -1.008600000000000     -0.019800000000000
H       3.033500000000000     -0.167700000000000      1.440200000000000
H       4.275100000000000     -1.258000000000000     -1.133400000000000
H       4.292500000000000     -2.034000000000000      0.448100000000000
H       2.220600000000000      1.744000000000000      0.097800000000000
H       2.959100000000000      1.074200000000000     -1.358800000000000
H       1.756000000000000     -1.173100000000000     -1.154700000000000
H       1.770600000000000     -2.020500000000000      0.385600000000000
H      -3.169700000000000     -1.906400000000000      0.124900000000000
H       6.436800000000000     -0.866400000000000     -0.053800000000000
H       5.655500000000000     -0.232000000000000      1.392400000000000
H       4.353500000000000      2.087200000000000      1.167200000000000
H       4.343600000000000      2.860700000000000     -0.415900000000000
H       6.475800000000000      1.632600000000000      0.027200000000000
H       5.634800000000000      1.022000000000000     -1.395700000000000
H      -3.766800000000000     -0.636200000000000      2.222200000000000
H      -5.120700000000000     -0.953500000000000      1.139900000000000
H      -4.639200000000000     -0.924500000000000     -1.494300000000000
H      -2.994200000000000     -0.591100000000000     -2.025900000000000
H      -3.623500000000000      1.694600000000000      1.451200000000000
H      -5.269300000000000      1.337400000000000      1.953400000000000
H      -4.493400000000000      1.385800000000000     -2.262900000000000
H      -3.133800000000000      1.717000000000000     -1.195300000000000
H      -6.001000000000000      1.061900000000000     -0.362400000000000
H      -5.183800000000000      2.613500000000000     -0.195900000000000
H       0.447900000000000      0.707500000000000     -0.127200000000000
H       0.513900000000000     -0.115100000000000      1.446700000000000
H      -1.780500000000000      0.599300000000000      0.805900000000000
