44

O      -3.157300000000000     -1.237000000000000     -1.021000000000000
N      -4.056500000000000     -0.234900000000000      0.872300000000000
C       5.482500000000000      0.614700000000000     -0.081900000000000
C       6.568800000000000     -0.445500000000000      0.112100000000000
C       4.124200000000000     -0.030200000000000     -0.369900000000000
C       7.944200000000000      0.146600000000000      0.426900000000000
C      -6.294700000000000      0.175500000000000     -0.100000000000000
C       3.029400000000000      1.027200000000000     -0.526100000000000
C      -5.398300000000000     -0.751900000000000      0.728100000000000
C       9.011699999999999     -0.904100000000000      0.690600000000000
C      -7.693600000000000     -0.414700000000000     -0.291600000000000
C      -6.394300000000000      1.545500000000000      0.571700000000000
C       1.703700000000000      0.395900000000000     -0.840900000000000
C       0.604600000000000      0.562000000000000     -0.090000000000000
C      -3.044900000000000     -0.527800000000000     -0.026400000000000
C      -0.668800000000000     -0.046900000000000     -0.405700000000000
C      -1.760900000000000      0.125700000000000      0.351800000000000
H       5.412300000000000      1.234000000000000      0.820400000000000
H       5.760500000000000      1.278000000000000     -0.909700000000000
H       6.642100000000000     -1.062100000000000     -0.792300000000000
H       6.274400000000000     -1.116300000000000      0.929000000000000
H       4.193900000000000     -0.634300000000000     -1.283500000000000
H       3.861600000000000     -0.714100000000000      0.447300000000000
H       7.866900000000000      0.796400000000000      1.306900000000000
H       8.266100000000000      0.780100000000000     -0.408200000000000
H      -5.845300000000000      0.315500000000000     -1.091500000000000
H       2.967500000000000      1.632400000000000      0.386600000000000
H       3.289500000000000      1.709300000000000     -1.344500000000000
H      -5.346400000000000     -1.740900000000000      0.258600000000000
H      -5.802600000000000     -0.884200000000000      1.738100000000000
H      -8.197300000000000     -0.561600000000000      0.669800000000000
H      -7.637000000000000     -1.384800000000000     -0.796400000000000
H      -8.315500000000000      0.246400000000000     -0.904200000000000
H      -6.792900000000000      1.463400000000000      1.588700000000000
H      -7.058800000000000      2.206000000000000      0.003800000000000
H      -5.418700000000000      2.039300000000000      0.626600000000000
H       8.740900000000000     -1.529400000000000      1.547200000000000
H       9.143200000000000     -1.553300000000000     -0.180800000000000
H       9.971500000000001     -0.425300000000000      0.907700000000000
H       1.657400000000000     -0.212900000000000     -1.741400000000000
H      -3.868400000000000      0.364900000000000      1.670600000000000
H       0.654900000000000      1.178100000000000      0.804200000000000
H      -0.708100000000000     -0.663400000000000     -1.300200000000000
H      -1.736700000000000      0.738800000000000      1.247400000000000
