45

N      -2.725600000000000      0.444800000000000     -0.239800000000000
N       3.001300000000000     -0.667400000000000      0.056000000000000
C      -3.721400000000000     -2.179300000000000      0.575300000000000
C      -2.255900000000000     -1.785600000000000      0.721900000000000
C      -4.382100000000000     -1.369300000000000     -0.534300000000000
C      -2.099100000000000     -0.272500000000000      0.879500000000000
C      -4.158100000000000      0.130800000000000     -0.336700000000000
C      -2.526300000000000      1.887000000000000     -0.098700000000000
C       2.190300000000000      0.435500000000000     -0.446000000000000
C       2.336700000000000      1.657100000000000      0.460000000000000
C       4.415000000000000     -0.289500000000000      0.099700000000000
C       2.820000000000000     -1.859800000000000     -0.773700000000000
C       1.500500000000000      2.830200000000000     -0.053000000000000
C      -1.098600000000000      2.218400000000000     -0.083200000000000
C       0.070500000000000      2.493300000000000     -0.069400000000000
C       5.268000000000000     -1.398500000000000      0.680100000000000
C       1.364800000000000     -2.275300000000000     -0.837700000000000
H      -3.803700000000000     -3.250200000000000      0.359700000000000
H      -4.245400000000000     -1.999100000000000      1.521900000000000
H      -1.820800000000000     -2.296500000000000      1.588400000000000
H      -1.700000000000000     -2.122900000000000     -0.161800000000000
H      -3.972800000000000     -1.677100000000000     -1.504900000000000
H      -5.456600000000000     -1.583100000000000     -0.558400000000000
H      -2.535200000000000      0.041800000000000      1.837300000000000
H      -1.022600000000000     -0.078900000000000      0.934800000000000
H      -4.596700000000000      0.656100000000000     -1.193800000000000
H      -4.693800000000000      0.467200000000000      0.560800000000000
H      -3.005600000000000      2.266800000000000      0.812600000000000
H      -2.989700000000000      2.407300000000000     -0.946100000000000
H       1.133700000000000      0.158300000000000     -0.445300000000000
H       2.464300000000000      0.695300000000000     -1.477100000000000
H       2.042900000000000      1.405700000000000      1.487400000000000
H       3.362100000000000      2.035400000000000      0.490200000000000
H       4.582300000000000      0.552900000000000      0.774900000000000
H       4.795000000000000     -0.003900000000000     -0.889200000000000
H       3.352400000000000     -2.712600000000000     -0.340000000000000
H       3.205100000000000     -1.712100000000000     -1.790600000000000
H       1.663600000000000      3.699600000000000      0.594200000000000
H       1.828800000000000      3.114200000000000     -1.059600000000000
H       4.846800000000000     -1.790800000000000      1.612300000000000
H       5.412200000000000     -2.226800000000000     -0.020300000000000
H       6.267100000000000     -1.012100000000000      0.912500000000000
H       0.904300000000000     -2.297200000000000      0.156000000000000
H       0.770500000000000     -1.632400000000000     -1.494500000000000
H       1.290700000000000     -3.288100000000000     -1.250200000000000
