45

N       1.739700000000000     -0.026600000000000      0.111600000000000
N      -2.511500000000000     -0.017000000000000      0.176600000000000
C       3.143800000000000     -0.034700000000000     -0.297600000000000
C      -1.149200000000000     -0.014800000000000     -0.355800000000000
C      -0.400500000000000     -1.270100000000000      0.099300000000000
C      -0.388400000000000      1.237400000000000      0.090000000000000
C       1.057800000000000     -1.237800000000000     -0.365500000000000
C       1.069500000000000      1.187800000000000     -0.374200000000000
C       3.901600000000000      1.201400000000000      0.171400000000000
C       3.938000000000000     -1.166500000000000      0.343300000000000
C       5.367300000000000      0.792400000000000      0.051000000000000
C       5.390800000000000     -0.734500000000000      0.162800000000000
C      -3.246800000000000     -1.198000000000000     -0.297300000000000
C      -3.208100000000000      1.224400000000000     -0.188700000000000
C      -4.658500000000000     -1.241600000000000      0.290000000000000
C      -4.618400000000000      1.260000000000000      0.401900000000000
C      -5.427000000000000      0.038100000000000     -0.018900000000000
H       3.227100000000000     -0.107300000000000     -1.392100000000000
H      -1.181300000000000     -0.014800000000000     -1.455600000000000
H      -0.828600000000000     -2.184400000000000     -0.323100000000000
H      -0.434200000000000     -1.364300000000000      1.193100000000000
H      -0.422200000000000      1.342500000000000      1.182700000000000
H      -0.807400000000000      2.150300000000000     -0.345800000000000
H       1.535800000000000     -2.138600000000000      0.034300000000000
H       1.097700000000000     -1.304700000000000     -1.460900000000000
H       1.112500000000000      1.248100000000000     -1.469800000000000
H       1.544700000000000      2.090400000000000      0.024100000000000
H       3.674200000000000      1.436100000000000      1.219300000000000
H       3.701500000000000      2.093000000000000     -0.431300000000000
H       3.760900000000000     -2.141200000000000     -0.121700000000000
H       3.711800000000000     -1.253600000000000      1.413700000000000
H       5.978400000000000      1.266900000000000      0.825400000000000
H       5.771700000000000      1.098500000000000     -0.920800000000000
H       5.807500000000000     -1.166500000000000     -0.754500000000000
H       6.013400000000000     -1.072300000000000      0.997400000000000
H      -2.780400000000000     -2.131000000000000      0.029400000000000
H      -3.301300000000000     -1.216600000000000     -1.393700000000000
H      -3.257600000000000      1.346500000000000     -1.278500000000000
H      -2.716700000000000      2.107700000000000      0.228300000000000
H      -4.601200000000000     -1.379400000000000      1.377400000000000
H      -5.201700000000000     -2.103900000000000     -0.113100000000000
H      -5.133400000000000      2.171900000000000      0.078700000000000
H      -4.558500000000000      1.297900000000000      1.497300000000000
H      -5.634900000000000      0.089700000000000     -1.094700000000000
H      -6.393600000000000      0.030500000000000      0.496500000000000
