45

N      -1.178300000000000     -1.643700000000000      0.292000000000000
N      -3.881700000000000      0.889200000000000     -0.181900000000000
C       2.998500000000000      0.222600000000000      0.592400000000000
C       2.542500000000000      1.445500000000000     -0.267400000000000
C       1.465600000000000     -0.085900000000000      0.695900000000000
C       1.298200000000000      1.472100000000000      0.678000000000000
C       2.189900000000000      1.064200000000000     -1.716000000000000
C       0.928600000000000     -0.731100000000000     -0.549800000000000
C       3.650300000000000      0.595800000000000      1.915800000000000
C       3.876100000000000     -0.811600000000000     -0.083500000000000
C       1.295300000000000     -0.153200000000000     -1.709000000000000
C       0.053700000000000     -1.932000000000000     -0.430200000000000
C      -1.920000000000000     -0.563600000000000     -0.362100000000000
C      -2.012300000000000     -2.843400000000000      0.390500000000000
C      -3.152400000000000     -0.198800000000000      0.460400000000000
C      -3.042700000000000      2.084800000000000     -0.278200000000000
C      -5.111300000000000      1.189200000000000      0.553200000000000
H       3.182100000000000      2.332300000000000     -0.213800000000000
H       1.142900000000000     -0.575900000000000      1.619800000000000
H       0.376300000000000      1.862200000000000      0.232400000000000
H       1.414800000000000      1.988800000000000      1.635100000000000
H       3.097700000000000      0.862100000000000     -2.294100000000000
H       1.665200000000000      1.894500000000000     -2.201600000000000
H       3.109600000000000      1.339600000000000      2.505300000000000
H       3.756600000000000     -0.288000000000000      2.556300000000000
H       4.654900000000000      1.002900000000000      1.750200000000000
H       3.526300000000000     -1.171800000000000     -1.052300000000000
H       4.882500000000000     -0.410400000000000     -0.253500000000000
H       3.983400000000000     -1.699600000000000      0.551100000000000
H       0.956800000000000     -0.547100000000000     -2.661700000000000
H       0.622400000000000     -2.705600000000000      0.102000000000000
H      -0.167700000000000     -2.341000000000000     -1.425700000000000
H      -2.209000000000000     -0.841000000000000     -1.385100000000000
H      -1.278900000000000      0.314600000000000     -0.428400000000000
H      -2.796000000000000     -2.735900000000000      1.146300000000000
H      -1.412300000000000     -3.696700000000000      0.730200000000000
H      -2.466500000000000     -3.120000000000000     -0.567900000000000
H      -2.865300000000000      0.064600000000000      1.487500000000000
H      -3.837500000000000     -1.051000000000000      0.517200000000000
H      -2.277600000000000      1.987900000000000     -1.054500000000000
H      -2.566000000000000      2.342900000000000      0.674500000000000
H      -3.644100000000000      2.948000000000000     -0.589700000000000
H      -5.686300000000000      1.969000000000000      0.041400000000000
H      -4.909300000000000      1.524400000000000      1.577100000000000
H      -5.759100000000000      0.306600000000000      0.600200000000000
