45

N      -2.723200000000000     -2.754000000000000      0.011500000000000
N       4.705300000000000     -1.029400000000000     -0.074300000000000
C       0.967400000000000     -0.457700000000000     -0.165000000000000
C      -1.556800000000000     -0.653600000000000     -0.409800000000000
C      -0.565900000000000      0.728700000000000      1.481700000000000
C      -0.397000000000000      1.552000000000000     -0.919200000000000
C      -0.203600000000000     -1.383000000000000     -0.564800000000000
C       0.775200000000000     -0.017600000000000      1.303500000000000
C       0.942000000000000      0.795700000000000     -1.067800000000000
C      -1.718000000000000     -0.211100000000000      1.061800000000000
C      -1.551500000000000      0.602300000000000     -1.309600000000000
C      -0.572600000000000      1.967700000000000      0.558600000000000
C       2.300600000000000     -1.195700000000000     -0.324300000000000
C      -2.706500000000000     -1.584100000000000     -0.809800000000000
C      -0.741000000000000      1.158000000000000      2.942100000000000
C      -0.405700000000000      2.791200000000000     -1.820300000000000
C       3.451200000000000     -0.309300000000000      0.105700000000000
H      -0.076200000000000     -1.717400000000000     -1.603400000000000
H      -0.170800000000000     -2.285800000000000      0.058900000000000
H       1.568100000000000      0.663700000000000      1.629800000000000
H       0.812300000000000     -0.891500000000000      1.967400000000000
H       1.096800000000000      0.507400000000000     -2.116100000000000
H       1.743200000000000      1.496800000000000     -0.811800000000000
H      -1.719300000000000     -1.073700000000000      1.739500000000000
H      -2.683100000000000      0.295800000000000      1.197200000000000
H      -2.512300000000000      1.127600000000000     -1.223800000000000
H      -1.451700000000000      0.307100000000000     -2.362900000000000
H      -1.514300000000000      2.519600000000000      0.681600000000000
H       0.231100000000000      2.656800000000000      0.851300000000000
H       2.431300000000000     -1.505800000000000     -1.369700000000000
H       2.293900000000000     -2.114900000000000      0.276600000000000
H      -2.592700000000000     -1.882800000000000     -1.858800000000000
H      -3.668800000000000     -1.064000000000000     -0.733900000000000
H      -1.690200000000000      1.685400000000000      3.087700000000000
H       0.065200000000000      1.829800000000000      3.256700000000000
H      -0.734200000000000      0.291800000000000      3.612800000000000
H      -0.279700000000000      2.515200000000000     -2.873000000000000
H       0.405300000000000      3.478800000000000     -1.556000000000000
H      -1.350100000000000      3.339100000000000     -1.729600000000000
H       3.401000000000000     -0.043400000000000      1.163200000000000
H       3.524800000000000      0.608600000000000     -0.480100000000000
H      -3.411100000000000     -3.416000000000000     -0.346000000000000
H      -3.031000000000000     -2.527900000000000      0.955800000000000
H       5.484700000000000     -0.422400000000000      0.176400000000000
H       4.831200000000000     -1.262800000000000     -1.058500000000000
