45

N      -4.886500000000000     -0.137000000000000      0.675900000000000
N      -3.907500000000000     -0.415800000000000     -1.297900000000000
C       1.326600000000000      0.671200000000000     -0.325200000000000
C       2.666000000000000      0.799800000000000      0.403600000000000
C       0.212100000000000      1.402200000000000      0.425500000000000
C       3.770700000000000      0.036700000000000     -0.329900000000000
C      -1.133300000000000      1.245400000000000     -0.286600000000000
C       5.131900000000000      0.112300000000000      0.368300000000000
C      -2.254000000000000      1.950300000000000      0.483800000000000
C       6.258500000000000     -0.702900000000000     -0.273600000000000
C      -3.620200000000000      1.842500000000000     -0.202800000000000
C       7.604500000000000     -0.543900000000000      0.433700000000000
C      -4.122200000000000      0.423600000000000     -0.309300000000000
C       8.684900000000001     -1.378400000000000     -0.237400000000000
C      -5.178100000000000     -1.415200000000000      0.290800000000000
C      -4.563600000000000     -1.563800000000000     -0.930300000000000
C      -5.989600000000000     -2.326800000000000      1.111500000000000
H       1.417700000000000      1.079800000000000     -1.338800000000000
H       1.065300000000000     -0.389300000000000     -0.426300000000000
H       2.942700000000000      1.857600000000000      0.485900000000000
H       2.569300000000000      0.409900000000000      1.424100000000000
H       0.135200000000000      1.004600000000000      1.444900000000000
H       0.462300000000000      2.466500000000000      0.511100000000000
H       3.870900000000000      0.428000000000000     -1.349800000000000
H       3.479900000000000     -1.017000000000000     -0.423000000000000
H      -1.357100000000000      0.177400000000000     -0.386600000000000
H      -1.065600000000000      1.660200000000000     -1.299500000000000
H       5.013100000000000     -0.220200000000000      1.407600000000000
H       5.440100000000000      1.164600000000000      0.415100000000000
H      -2.318900000000000      1.532100000000000      1.496300000000000
H      -2.003200000000000      3.012600000000000      0.593100000000000
H       6.363200000000000     -0.398400000000000     -1.322400000000000
H       5.971700000000000     -1.761800000000000     -0.279400000000000
H      -3.562100000000000      2.270600000000000     -1.210800000000000
H      -4.350500000000000      2.443800000000000      0.352600000000000
H       7.905100000000000      0.510100000000000      0.427300000000000
H       7.510900000000000     -0.849100000000000      1.482200000000000
H       8.427300000000001     -2.442200000000000     -0.219000000000000
H       9.639400000000000     -1.251000000000000      0.282800000000000
H       8.823300000000000     -1.075800000000000     -1.280300000000000
H      -5.180700000000000      0.311500000000000      1.533500000000000
H      -4.558100000000000     -2.438200000000000     -1.565000000000000
H      -5.520000000000000     -2.493000000000000      2.086400000000000
H      -6.989600000000000     -1.913400000000000      1.277200000000000
H      -6.104500000000000     -3.299900000000000      0.623300000000000
