45

N      -1.944300000000000     -1.467100000000000     -1.220000000000000
N       2.007500000000000      0.110200000000000     -0.301900000000000
C      -1.773900000000000     -0.028800000000000     -0.946600000000000
C      -3.004900000000000      0.540700000000000     -0.203400000000000
C      -0.436100000000000      0.303300000000000     -0.233400000000000
C      -2.832500000000000      2.034700000000000      0.102700000000000
C      -0.321100000000000      1.815900000000000      0.016500000000000
C      -3.324400000000000     -0.268200000000000      1.064000000000000
C      -1.513500000000000      2.358600000000000      0.796400000000000
C       0.776800000000000     -0.176000000000000     -1.038700000000000
C      -3.444000000000000     -1.752200000000000      0.732700000000000
C      -2.211800000000000     -2.252600000000000     -0.014000000000000
C       2.232200000000000     -0.903800000000000      0.737700000000000
C       3.150900000000000      0.190100000000000     -1.221800000000000
C       3.488900000000000     -0.590600000000000      1.551200000000000
C       4.438000000000000      0.538900000000000     -0.473000000000000
C       4.712000000000000     -0.453300000000000      0.651500000000000
H      -1.744900000000000      0.461200000000000     -1.930000000000000
H      -3.874700000000000      0.447200000000000     -0.870200000000000
H      -0.444300000000000     -0.186600000000000      0.746300000000000
H      -2.876200000000000      2.592700000000000     -0.841800000000000
H      -3.668200000000000      2.395500000000000      0.714000000000000
H      -0.245400000000000      2.348700000000000     -0.940400000000000
H       0.586000000000000      2.053900000000000      0.583700000000000
H      -4.263900000000000      0.083200000000000      1.506700000000000
H      -2.547900000000000     -0.132600000000000      1.825100000000000
H      -1.416100000000000      3.445500000000000      0.901000000000000
H      -1.509800000000000      1.945800000000000      1.811700000000000
H       0.727500000000000     -1.242500000000000     -1.282500000000000
H       0.772700000000000      0.359100000000000     -1.998300000000000
H      -1.142700000000000     -1.847100000000000     -1.716400000000000
H      -3.578900000000000     -2.328200000000000      1.655100000000000
H      -4.338600000000000     -1.918000000000000      0.119200000000000
H      -1.338200000000000     -2.257600000000000      0.647600000000000
H      -2.380000000000000     -3.294000000000000     -0.310600000000000
H       2.328200000000000     -1.904000000000000      0.294300000000000
H       1.395000000000000     -0.943600000000000      1.441700000000000
H       3.282700000000000     -0.756000000000000     -1.763200000000000
H       2.974900000000000      0.973100000000000     -1.969600000000000
H       3.660500000000000     -1.383400000000000      2.288100000000000
H       3.340800000000000      0.341100000000000      2.111900000000000
H       4.357300000000000      1.550700000000000     -0.055700000000000
H       5.282200000000000      0.547900000000000     -1.171700000000000
H       5.576900000000000     -0.126700000000000      1.239300000000000
H       4.963200000000000     -1.431400000000000      0.223400000000000
