45

N       0.518800000000000      2.308800000000000     -0.589100000000000
N      -4.328200000000000     -0.229600000000000      0.405200000000000
C       0.561100000000000     -0.210800000000000     -0.496300000000000
C       2.200700000000000      1.199500000000000      0.833800000000000
C       3.047400000000000     -0.300400000000000     -1.011000000000000
C       2.182900000000000     -1.306800000000000      1.128400000000000
C       0.759900000000000      1.139900000000000      0.262800000000000
C       1.630800000000000     -0.363400000000000     -1.609000000000000
C       0.769300000000000     -1.362500000000000      0.525000000000000
C       3.246400000000000      1.041800000000000     -0.288000000000000
C       2.381300000000000      0.043100000000000      1.836400000000000
C       3.218100000000000     -1.445500000000000      0.000800000000000
C      -0.845400000000000     -0.332100000000000     -1.101700000000000
C      -1.914800000000000     -0.223700000000000     -0.022100000000000
C      -3.310800000000000     -0.313500000000000     -0.636000000000000
C      -5.591300000000000     -0.804500000000000     -0.061000000000000
C      -4.526200000000000      1.159700000000000      0.821900000000000
H       2.364200000000000      2.150900000000000      1.355000000000000
H       3.789800000000000     -0.402700000000000     -1.810300000000000
H       2.310600000000000     -2.123400000000000      1.847800000000000
H       0.079900000000000      1.209500000000000      1.119300000000000
H       1.498200000000000     -1.319400000000000     -2.132300000000000
H       1.514500000000000      0.422100000000000     -2.366100000000000
H       0.065300000000000     -1.301600000000000      1.361100000000000
H       0.611800000000000     -2.335800000000000      0.042700000000000
H       3.170900000000000      1.868200000000000     -1.004400000000000
H       4.256900000000000      1.089600000000000      0.136800000000000
H       3.382600000000000      0.087800000000000      2.282300000000000
H       1.663800000000000      0.144500000000000      2.660000000000000
H       4.232200000000000     -1.428800000000000      0.418700000000000
H       3.097600000000000     -2.412600000000000     -0.502700000000000
H      -1.005400000000000      0.433400000000000     -1.870400000000000
H      -0.945800000000000     -1.298700000000000     -1.613200000000000
H       0.703100000000000      3.160600000000000     -0.060600000000000
H      -0.464200000000000      2.347800000000000     -0.853000000000000
H      -1.829100000000000     -1.030800000000000      0.711400000000000
H      -1.823300000000000      0.723800000000000      0.510900000000000
H      -3.378100000000000     -1.284500000000000     -1.145200000000000
H      -3.454200000000000      0.453300000000000     -1.408600000000000
H      -5.464400000000000     -1.863200000000000     -0.313900000000000
H      -5.982200000000000     -0.282100000000000     -0.941800000000000
H      -6.348800000000000     -0.763100000000000      0.729700000000000
H      -3.624600000000000      1.584600000000000      1.272800000000000
H      -5.300700000000000      1.216000000000000      1.595900000000000
H      -4.834900000000000      1.803100000000000     -0.010300000000000
