45

N       5.542400000000000      0.242000000000000     -0.113400000000000
N       7.370300000000000     -0.652200000000000      0.776300000000000
C      -2.099400000000000     -0.246500000000000      0.242100000000000
C      -0.854600000000000      0.618700000000000      0.018900000000000
C      -3.410000000000000      0.520800000000000      0.061700000000000
C       0.490200000000000     -0.111600000000000      0.127500000000000
C      -4.621800000000000     -0.403500000000000      0.203000000000000
C       1.693500000000000      0.801200000000000     -0.121700000000000
C      -5.927500000000000      0.363900000000000     -0.017200000000000
C       3.039600000000000      0.075200000000000     -0.015600000000000
C      -7.176100000000000     -0.514800000000000      0.094900000000000
C       4.276300000000000      0.960500000000000     -0.202000000000000
C      -8.474100000000000      0.238200000000000     -0.200900000000000
C      -9.677300000000001     -0.691300000000000     -0.151200000000000
C       6.214800000000000     -0.343300000000000     -1.149000000000000
C       6.274100000000000      0.030700000000000      1.022000000000000
C       7.339600000000000     -0.888000000000000     -0.575400000000000
H      -2.062800000000000     -0.675900000000000      1.250700000000000
H      -2.072800000000000     -1.087900000000000     -0.461400000000000
H      -0.867000000000000      1.444400000000000      0.741800000000000
H      -0.920900000000000      1.077600000000000     -0.975800000000000
H      -3.422900000000000      0.991200000000000     -0.929000000000000
H      -3.468100000000000      1.326900000000000      0.802900000000000
H       0.574000000000000     -0.559200000000000      1.125200000000000
H       0.507800000000000     -0.937700000000000     -0.593800000000000
H      -4.551200000000000     -1.219700000000000     -0.525900000000000
H      -4.626200000000000     -0.858600000000000      1.200600000000000
H       1.608500000000000      1.251700000000000     -1.118000000000000
H       1.675200000000000      1.625600000000000      0.601700000000000
H      -5.906900000000000      0.828600000000000     -1.010800000000000
H      -5.997900000000000      1.180300000000000      0.712300000000000
H       3.102000000000000     -0.414700000000000      0.964900000000000
H       3.064500000000000     -0.733300000000000     -0.757800000000000
H      -7.225300000000000     -0.945100000000000      1.102800000000000
H      -7.081800000000000     -1.355800000000000     -0.603500000000000
H       4.301100000000000      1.750100000000000      0.558100000000000
H       4.253200000000000      1.449000000000000     -1.183200000000000
H      -8.607500000000000      1.046900000000000      0.526600000000000
H      -8.418300000000000      0.699500000000000     -1.193700000000000
H      -9.587199999999999     -1.490600000000000     -0.893800000000000
H      -9.777799999999999     -1.149900000000000      0.837700000000000
H     -10.595200000000000     -0.133900000000000     -0.362200000000000
H       5.849500000000000     -0.324300000000000     -2.166300000000000
H       5.961200000000000      0.393200000000000      1.991700000000000
H       8.128200000000000     -1.438800000000000     -1.066900000000000
