45

N       2.360100000000000     -0.502800000000000     -0.206900000000000
N       0.686300000000000      1.209700000000000     -0.178300000000000
C       2.024800000000000      0.815500000000000      0.299300000000000
C       1.418300000000000     -1.488700000000000      0.339400000000000
C      -0.363900000000000      0.305100000000000      0.312600000000000
C      -0.002900000000000     -1.147000000000000     -0.106000000000000
C       2.856200000000000      1.961300000000000     -0.257300000000000
C       2.013300000000000     -2.776900000000000     -0.195100000000000
C       3.680600000000000     -1.018800000000000      0.123100000000000
C       0.552400000000000      2.618600000000000      0.180500000000000
C       3.523900000000000     -2.522800000000000     -0.123800000000000
C       1.958200000000000      3.180800000000000     -0.045400000000000
C      -1.738500000000000      0.672500000000000     -0.248500000000000
C      -2.823500000000000     -0.243600000000000      0.307800000000000
C      -4.200500000000000      0.147100000000000     -0.231300000000000
C      -5.289600000000000     -0.787300000000000      0.295200000000000
C      -6.655100000000000     -0.422700000000000     -0.265000000000000
H       2.066700000000000      0.840200000000000      1.399400000000000
H       1.460500000000000     -1.500900000000000      1.439100000000000
H      -0.400900000000000      0.352400000000000      1.410000000000000
H      -0.099000000000000     -1.262000000000000     -1.194100000000000
H      -0.675500000000000     -1.874000000000000      0.360000000000000
H       3.052900000000000      1.832400000000000     -1.329900000000000
H       3.820100000000000      2.069000000000000      0.250200000000000
H       1.715600000000000     -2.958800000000000     -1.235100000000000
H       1.719100000000000     -3.648400000000000      0.398000000000000
H       3.939500000000000     -0.838800000000000      1.173900000000000
H       4.463700000000000     -0.588700000000000     -0.508600000000000
H       0.266500000000000      2.746300000000000      1.231700000000000
H      -0.179000000000000      3.136800000000000     -0.447100000000000
H       3.981100000000000     -3.096200000000000      0.689800000000000
H       4.001000000000000     -2.826500000000000     -1.062200000000000
H       2.283400000000000      3.755900000000000      0.828700000000000
H       1.996500000000000      3.839900000000000     -0.919200000000000
H      -1.730700000000000      0.618900000000000     -1.344800000000000
H      -1.991900000000000      1.706000000000000      0.017000000000000
H      -2.643500000000000     -1.284400000000000      0.022800000000000
H      -2.828900000000000     -0.197400000000000      1.403500000000000
H      -4.431000000000000      1.179700000000000      0.057800000000000
H      -4.188600000000000      0.113700000000000     -1.327700000000000
H      -5.056600000000000     -1.823400000000000      0.022900000000000
H      -5.323900000000000     -0.739300000000000      1.389800000000000
H      -6.933800000000000      0.598400000000000      0.014600000000000
H      -7.418800000000000     -1.102400000000000      0.125500000000000
H      -6.663200000000000     -0.494400000000000     -1.357300000000000
