45

N      -2.574700000000000     -0.355100000000000      0.009200000000000
N      -4.844700000000000      1.423400000000000     -0.280600000000000
C       1.750000000000000     -0.698700000000000      0.084200000000000
C       0.912300000000000     -1.813800000000000      0.705700000000000
C       3.177800000000000     -1.173400000000000     -0.203200000000000
C      -0.525500000000000     -1.315700000000000      0.955000000000000
C       1.774800000000000      0.538100000000000      0.996500000000000
C      -1.219500000000000     -0.801500000000000     -0.307600000000000
C       4.002800000000000     -0.072400000000000     -0.877100000000000
C       0.949700000000000     -3.053500000000000     -0.191500000000000
C       2.806700000000000      1.550400000000000      0.593000000000000
C       3.809400000000000      1.291800000000000     -0.264000000000000
C      -2.558700000000000      0.998200000000000      0.579400000000000
C      -3.432100000000000     -0.403700000000000     -1.182000000000000
C      -3.979700000000000      1.467600000000000      0.900600000000000
C      -4.848000000000000      0.074200000000000     -0.850400000000000
C       4.799300000000000      2.344100000000000     -0.667200000000000
H       1.335800000000000     -0.408200000000000     -0.889400000000000
H       1.333700000000000     -2.099300000000000      1.679000000000000
H      -1.111700000000000     -2.148700000000000      1.367700000000000
H      -0.515000000000000     -0.558200000000000      1.745300000000000
H       3.665900000000000     -1.474000000000000      0.733400000000000
H       3.201400000000000     -2.041600000000000     -0.869000000000000
H       0.802800000000000      1.043000000000000      0.970400000000000
H       1.966800000000000      0.252000000000000      2.037900000000000
H      -1.266500000000000     -1.633700000000000     -1.020700000000000
H      -0.671600000000000      0.004900000000000     -0.803800000000000
H       5.061200000000000     -0.355400000000000     -0.828400000000000
H       3.733800000000000     -0.015000000000000     -1.939400000000000
H       0.175500000000000     -3.768000000000000      0.110100000000000
H       1.903700000000000     -3.583300000000000     -0.105100000000000
H       0.784000000000000     -2.808500000000000     -1.245900000000000
H       2.711600000000000      2.540600000000000      1.030900000000000
H      -1.983300000000000      1.024300000000000      1.510700000000000
H      -2.089100000000000      1.710300000000000     -0.113000000000000
H      -3.012900000000000      0.211700000000000     -1.989600000000000
H      -3.498100000000000     -1.433500000000000     -1.553900000000000
H      -4.410000000000000      0.854500000000000      1.702700000000000
H      -3.943000000000000      2.498100000000000      1.270900000000000
H      -5.448900000000000      0.080300000000000     -1.766400000000000
H      -5.331400000000000     -0.624100000000000     -0.155200000000000
H      -5.794300000000000      1.684700000000000     -0.017600000000000
H       4.588900000000000      3.311000000000000     -0.198100000000000
H       5.811400000000000      2.045400000000000     -0.376100000000000
H       4.777600000000000      2.488500000000000     -1.752300000000000
