46

O      -2.364900000000000      0.724300000000000     -0.238300000000000
O      -3.589600000000000     -0.396300000000000      1.363400000000000
C      -1.203500000000000     -2.697800000000000     -0.090900000000000
C      -1.912000000000000     -1.996600000000000     -1.254000000000000
C       0.140100000000000     -3.279300000000000     -0.531100000000000
C      -3.244800000000000     -1.374900000000000     -0.836900000000000
C       0.954100000000000      2.061800000000000      0.672400000000000
C       1.450400000000000      0.914500000000000     -0.217300000000000
C      -0.012500000000000      2.998200000000000     -0.022200000000000
C       0.869400000000000     -3.937900000000000      0.629100000000000
C      -3.100900000000000     -0.326300000000000      0.244000000000000
C      -1.352200000000000      2.855500000000000     -0.028700000000000
C      -2.169400000000000      1.808800000000000      0.659200000000000
C       2.418200000000000      0.009200000000000      0.493200000000000
C       0.627800000000000      4.137600000000000     -0.773300000000000
C       3.658600000000000     -0.346800000000000      0.109100000000000
C       4.351700000000000      0.125400000000000     -1.137200000000000
C       4.479300000000000     -1.279600000000000      0.959600000000000
H      -1.843000000000000     -3.497300000000000      0.302000000000000
H      -1.032000000000000     -1.988300000000000      0.727200000000000
H      -1.255600000000000     -1.221100000000000     -1.666900000000000
H      -2.096000000000000     -2.719100000000000     -2.058200000000000
H      -0.017100000000000     -4.018600000000000     -1.325100000000000
H       0.772100000000000     -2.486500000000000     -0.947600000000000
H      -3.741300000000000     -0.913800000000000     -1.698200000000000
H      -3.919100000000000     -2.154200000000000     -0.462900000000000
H       0.493300000000000      1.646900000000000      1.576800000000000
H       1.811500000000000      2.643400000000000      1.037300000000000
H       0.592400000000000      0.304400000000000     -0.526400000000000
H       1.872600000000000      1.329500000000000     -1.135700000000000
H       1.826800000000000     -4.347000000000000      0.291500000000000
H       0.278300000000000     -4.757500000000000      1.049700000000000
H       1.071900000000000     -3.215200000000000      1.426100000000000
H      -1.940800000000000      3.577300000000000     -0.593700000000000
H      -1.682500000000000      1.453200000000000      1.572900000000000
H      -3.138400000000000      2.239300000000000      0.938600000000000
H       2.031600000000000     -0.414500000000000      1.419700000000000
H       1.196600000000000      4.771400000000000     -0.085100000000000
H      -0.108800000000000      4.773500000000000     -1.275900000000000
H       1.310500000000000      3.754600000000000     -1.538500000000000
H       5.275600000000000      0.651900000000000     -0.874900000000000
H       4.613300000000000     -0.732000000000000     -1.766600000000000
H       3.755200000000000      0.804400000000000     -1.748200000000000
H       4.739900000000000     -2.178700000000000      0.391500000000000
H       5.404700000000000     -0.788100000000000      1.277600000000000
H       3.947200000000000     -1.600600000000000      1.861400000000000
