46

O       6.182600000000000      0.221800000000000     -0.480000000000000
O       7.423200000000000      1.145900000000000      1.235800000000000
C       0.064800000000000     -1.024100000000000      0.403900000000000
C       1.334000000000000     -0.933800000000000     -0.447300000000000
C      -1.162300000000000     -1.489500000000000     -0.386600000000000
C       2.542900000000000     -0.394700000000000      0.324900000000000
C      -2.448000000000000     -1.507400000000000      0.446000000000000
C       3.855600000000000     -0.337300000000000     -0.457700000000000
C      -3.640200000000000     -1.989800000000000     -0.388600000000000
C       5.020000000000000      0.235100000000000      0.338700000000000
C      -4.979200000000000     -2.029800000000000      0.300000000000000
C      -5.868300000000000     -1.029900000000000      0.404200000000000
C       7.322500000000000      0.708900000000000      0.097400000000000
C      -5.645300000000000      0.283300000000000     -0.159900000000000
C      -6.531000000000000      1.285500000000000     -0.058100000000000
C       8.459500000000000      0.632600000000000     -0.876000000000000
C      -6.312100000000000      2.650100000000000     -0.643300000000000
C      -5.618700000000000      3.573200000000000      0.346700000000000
H       0.237300000000000     -1.710100000000000      1.242200000000000
H      -0.144300000000000     -0.038700000000000      0.838600000000000
H       1.573100000000000     -1.928400000000000     -0.842800000000000
H       1.147700000000000     -0.285200000000000     -1.312000000000000
H      -0.971000000000000     -2.493900000000000     -0.784500000000000
H      -1.303700000000000     -0.827700000000000     -1.250200000000000
H       2.695700000000000     -1.016100000000000      1.216500000000000
H       2.304600000000000      0.613100000000000      0.687900000000000
H      -2.647700000000000     -0.500300000000000      0.831300000000000
H      -2.317500000000000     -2.164000000000000      1.314800000000000
H       3.715500000000000      0.261000000000000     -1.366900000000000
H       4.118700000000000     -1.343600000000000     -0.807800000000000
H      -3.430300000000000     -3.009600000000000     -0.739400000000000
H      -3.710600000000000     -1.394500000000000     -1.307200000000000
H       4.796200000000000      1.264600000000000      0.641600000000000
H       5.195800000000000     -0.373200000000000      1.233600000000000
H      -5.233000000000000     -2.975600000000000      0.775400000000000
H      -6.796900000000000     -1.204400000000000      0.940600000000000
H      -4.717300000000000      0.472500000000000     -0.690600000000000
H      -7.463900000000000      1.134300000000000      0.480500000000000
H      -5.711300000000000      2.581200000000000     -1.558100000000000
H      -7.279700000000000      3.072900000000000     -0.936400000000000
H       8.233800000000000      1.238000000000000     -1.757400000000000
H       8.636100000000001     -0.408300000000000     -1.158400000000000
H       9.366099999999999      1.025100000000000     -0.406500000000000
H      -6.208200000000000      3.685700000000000      1.262900000000000
H      -5.485800000000000      4.566600000000000     -0.093500000000000
H      -4.629600000000000      3.191500000000000      0.622000000000000
