46

O      -4.928500000000000      0.359200000000000      0.353100000000000
O      -6.355800000000000     -0.049600000000000     -1.416900000000000
C       0.951400000000000     -1.853600000000000      0.162500000000000
C      -0.243600000000000     -1.139400000000000      0.802200000000000
C       2.165800000000000     -1.940900000000000      1.090300000000000
C      -1.482700000000000     -1.120400000000000     -0.097500000000000
C       3.344700000000000     -2.708500000000000      0.477200000000000
C      -2.638600000000000     -0.364700000000000      0.565300000000000
C       3.965100000000000     -2.068900000000000     -0.771000000000000
C      -3.893200000000000     -0.361400000000000     -0.299800000000000
C       4.444000000000000     -0.667000000000000     -0.528900000000000
C       4.040300000000000      0.392100000000000     -1.246400000000000
C       4.488600000000000      1.797100000000000     -0.975000000000000
C      -6.116500000000000      0.438800000000000     -0.320900000000000
C       3.326000000000000      2.696000000000000     -0.669100000000000
C      -7.108900000000000      1.222500000000000      0.483400000000000
C       2.798700000000000      2.955700000000000      0.537000000000000
C       3.243100000000000      2.412900000000000      1.854600000000000
H       1.220500000000000     -1.323300000000000     -0.757900000000000
H       0.649800000000000     -2.866900000000000     -0.130100000000000
H       0.045700000000000     -0.110000000000000      1.047800000000000
H      -0.494600000000000     -1.633600000000000      1.748900000000000
H       1.868200000000000     -2.456100000000000      2.012300000000000
H       2.478600000000000     -0.933900000000000      1.389300000000000
H      -1.234900000000000     -0.645400000000000     -1.054300000000000
H      -1.791500000000000     -2.149600000000000     -0.316200000000000
H       4.121500000000000     -2.811300000000000      1.246000000000000
H       3.022700000000000     -3.727100000000000      0.227700000000000
H      -2.874400000000000     -0.812400000000000      1.538900000000000
H      -2.341500000000000      0.670200000000000      0.776300000000000
H       3.250500000000000     -2.104200000000000     -1.601300000000000
H       4.825200000000000     -2.674700000000000     -1.081200000000000
H      -3.675700000000000      0.111500000000000     -1.265000000000000
H      -4.223900000000000     -1.391800000000000     -0.476300000000000
H       5.149800000000000     -0.523400000000000      0.285700000000000
H       3.342200000000000      0.244600000000000     -2.067400000000000
H       5.001800000000000      2.182000000000000     -1.864600000000000
H       5.229600000000000      1.833900000000000     -0.168200000000000
H       2.859800000000000      3.172500000000000     -1.530100000000000
H      -6.736100000000000      2.237000000000000      0.644900000000000
H      -7.289900000000000      0.721900000000000      1.437900000000000
H      -8.054000000000000      1.281400000000000     -0.064100000000000
H       1.947500000000000      3.632700000000000      0.575300000000000
H       4.074300000000000      1.708400000000000      1.773100000000000
H       2.410500000000000      1.891400000000000      2.337100000000000
H       3.556200000000000      3.233700000000000      2.507100000000000
