46

O       0.139000000000000      2.426100000000000      0.572900000000000
O       0.467400000000000      0.980200000000000     -1.194000000000000
C       4.432200000000000      0.076400000000000      0.402700000000000
C       3.085400000000000      0.316800000000000     -0.286500000000000
C       5.322800000000000     -0.846300000000000     -0.429400000000000
C       2.184100000000000      1.263600000000000      0.505900000000000
C      -4.038800000000000      0.147700000000000      0.619300000000000
C      -3.837700000000000     -1.346500000000000      0.334300000000000
C      -3.003300000000000      1.038300000000000     -0.034800000000000
C       6.678500000000000     -1.053400000000000      0.227100000000000
C       0.845500000000000      1.505400000000000     -0.155900000000000
C      -2.158800000000000      1.852300000000000      0.628200000000000
C      -1.136200000000000      2.781000000000000      0.055200000000000
C      -2.501800000000000     -1.850300000000000      0.806500000000000
C      -2.981900000000000      0.995900000000000     -1.541400000000000
C      -1.561400000000000     -2.502400000000000      0.097100000000000
C      -1.656200000000000     -2.846900000000000     -1.361900000000000
C      -0.278900000000000     -2.937600000000000      0.754800000000000
H       4.265100000000000     -0.364200000000000      1.393000000000000
H       4.939300000000000      1.036600000000000      0.556600000000000
H       3.254000000000000      0.731500000000000     -1.288400000000000
H       2.571500000000000     -0.642200000000000     -0.429400000000000
H       4.832400000000000     -1.818000000000000     -0.560300000000000
H       5.470900000000000     -0.420400000000000     -1.428600000000000
H       1.995900000000000      0.844300000000000      1.500700000000000
H       2.686100000000000      2.231300000000000      0.619000000000000
H      -5.036000000000000      0.448500000000000      0.274100000000000
H      -4.035300000000000      0.308600000000000      1.705500000000000
H      -4.614600000000000     -1.905600000000000      0.870800000000000
H      -4.009400000000000     -1.540900000000000     -0.727200000000000
H       7.298100000000000     -1.717400000000000     -0.383700000000000
H       6.569200000000000     -1.506300000000000      1.217700000000000
H       7.209000000000000     -0.102600000000000      0.340200000000000
H      -2.219600000000000      1.858400000000000      1.715900000000000
H      -1.111600000000000      2.835200000000000     -1.035800000000000
H      -1.354800000000000      3.796300000000000      0.404300000000000
H      -2.306700000000000     -1.669800000000000      1.863300000000000
H      -2.293500000000000      0.221800000000000     -1.893400000000000
H      -2.710100000000000      1.949600000000000     -1.999800000000000
H      -3.979600000000000      0.760800000000000     -1.929700000000000
H      -0.844100000000000     -2.361500000000000     -1.913900000000000
H      -1.563700000000000     -3.929700000000000     -1.497500000000000
H      -2.593500000000000     -2.542800000000000     -1.830200000000000
H      -0.167600000000000     -4.024700000000000      0.686600000000000
H       0.578100000000000     -2.468100000000000      0.260500000000000
H      -0.239000000000000     -2.665700000000000      1.814900000000000
