46

O      -2.407000000000000     -1.598900000000000     -0.135200000000000
O      -2.509200000000000      0.146600000000000      1.370500000000000
C      -0.541900000000000      2.282800000000000      0.088900000000000
C       0.764600000000000      3.064000000000000     -0.079500000000000
C      -1.553000000000000      2.638600000000000     -1.001500000000000
C       1.732800000000000      2.857300000000000      1.091000000000000
C       1.622300000000000     -3.293000000000000     -0.480600000000000
C      -2.939300000000000      2.014200000000000     -0.792600000000000
C       0.111500000000000     -3.048100000000000     -0.477200000000000
C       2.500200000000000     -2.092700000000000     -0.113800000000000
C       2.338100000000000      1.453300000000000      1.190200000000000
C      -0.437800000000000     -2.602500000000000      0.881500000000000
C       2.234200000000000     -0.854000000000000     -0.971100000000000
C      -2.988700000000000      0.498500000000000     -0.990000000000000
C      -1.963600000000000     -2.522100000000000      0.875400000000000
C       3.337100000000000      1.174700000000000      0.104200000000000
C       3.305700000000000      0.181700000000000     -0.796800000000000
C      -2.605900000000000     -0.300400000000000      0.236700000000000
H      -0.330300000000000      1.210800000000000      0.055000000000000
H      -0.973700000000000      2.505200000000000      1.071800000000000
H       0.532400000000000      4.134800000000000     -0.138100000000000
H       1.243800000000000      2.794900000000000     -1.027600000000000
H      -1.158500000000000      2.346900000000000     -1.982500000000000
H      -1.678300000000000      3.728500000000000     -1.026700000000000
H       1.209700000000000      3.080900000000000      2.029200000000000
H       2.541200000000000      3.595300000000000      1.009000000000000
H       1.908900000000000     -3.642700000000000     -1.480600000000000
H       1.852900000000000     -4.115300000000000      0.208200000000000
H      -3.609500000000000      2.465800000000000     -1.535400000000000
H      -3.332400000000000      2.297000000000000      0.190900000000000
H      -0.144300000000000     -2.311700000000000     -1.247800000000000
H      -0.381900000000000     -3.983000000000000     -0.771900000000000
H       3.549000000000000     -2.399200000000000     -0.221500000000000
H       2.363200000000000     -1.845100000000000      0.946000000000000
H       1.550500000000000      0.695700000000000      1.232000000000000
H       2.872300000000000      1.380300000000000      2.146200000000000
H      -0.118900000000000     -3.303300000000000      1.661200000000000
H      -0.029900000000000     -1.617000000000000      1.132300000000000
H       1.251500000000000     -0.430100000000000     -0.742100000000000
H       2.203000000000000     -1.132400000000000     -2.031800000000000
H      -2.339600000000000      0.210200000000000     -1.824500000000000
H      -4.016900000000000      0.209700000000000     -1.238700000000000
H      -2.396100000000000     -3.498700000000000      0.633300000000000
H      -2.343000000000000     -2.238000000000000      1.863400000000000
H       4.200100000000000      1.838200000000000      0.080100000000000
H       4.141800000000000      0.111000000000000     -1.490400000000000
