46

O      -2.448700000000000      0.691500000000000      0.265900000000000
O      -4.398400000000000      0.072000000000000     -0.796700000000000
C       2.048700000000000      2.660400000000000     -0.330900000000000
C       2.592000000000000      1.349000000000000      0.242400000000000
C       1.055800000000000      3.363100000000000      0.599100000000000
C       3.448400000000000      0.615400000000000     -0.792300000000000
C      -0.295200000000000      2.657400000000000      0.772500000000000
C       4.276000000000000     -0.536000000000000     -0.213200000000000
C      -1.058300000000000      2.493600000000000     -0.545900000000000
C       3.504400000000000     -1.591900000000000      0.583700000000000
C      -2.485200000000000      1.992800000000000     -0.343400000000000
C      -1.228700000000000     -2.301800000000000     -0.549900000000000
C      -1.878000000000000     -2.004900000000000      0.808100000000000
C       0.059100000000000     -3.127900000000000     -0.435900000000000
C       2.401900000000000     -2.254100000000000     -0.190900000000000
C      -3.307800000000000     -1.478400000000000      0.683900000000000
C       1.166000000000000     -2.430300000000000      0.300600000000000
C      -3.451700000000000     -0.169800000000000     -0.057100000000000
H       2.894100000000000      3.339300000000000     -0.502400000000000
H       1.595600000000000      2.488100000000000     -1.313100000000000
H       1.766100000000000      0.700700000000000      0.550300000000000
H       3.187500000000000      1.567000000000000      1.136900000000000
H       1.515200000000000      3.494400000000000      1.586500000000000
H       0.872700000000000      4.371900000000000      0.208000000000000
H       4.143300000000000      1.323600000000000     -1.261100000000000
H       2.802800000000000      0.241000000000000     -1.596200000000000
H      -0.153300000000000      1.681300000000000      1.249300000000000
H      -0.901100000000000      3.254700000000000      1.465300000000000
H       5.051900000000000     -0.116300000000000      0.439900000000000
H       4.807100000000000     -1.026100000000000     -1.039400000000000
H      -1.091400000000000      3.452300000000000     -1.076100000000000
H      -0.527700000000000      1.775900000000000     -1.181900000000000
H       3.120300000000000     -1.144700000000000      1.508400000000000
H       4.213600000000000     -2.370500000000000      0.891600000000000
H      -3.041900000000000      2.665800000000000      0.317100000000000
H      -2.988000000000000      1.958300000000000     -1.316600000000000
H      -1.019800000000000     -1.363500000000000     -1.078000000000000
H      -1.936300000000000     -2.864900000000000     -1.171300000000000
H      -1.265900000000000     -1.287700000000000      1.366700000000000
H      -1.908300000000000     -2.925500000000000      1.403900000000000
H       0.387000000000000     -3.397300000000000     -1.447500000000000
H      -0.160400000000000     -4.069900000000000      0.081400000000000
H       2.644200000000000     -2.625500000000000     -1.183100000000000
H      -3.736300000000000     -1.337100000000000      1.682600000000000
H      -3.920800000000000     -2.225400000000000      0.165700000000000
H       0.949900000000000     -2.086000000000000      1.308600000000000
