46

O       1.776900000000000     -1.457900000000000     -0.339700000000000
O       1.323900000000000      0.280400000000000      1.108300000000000
C       3.220700000000000      0.420700000000000     -0.406100000000000
C       2.813500000000000      1.740300000000000     -1.081500000000000
C       4.291000000000000      0.668800000000000      0.669300000000000
C       2.000200000000000     -0.231000000000000      0.224900000000000
C       1.813100000000000      1.537400000000000     -2.212500000000000
C       4.743200000000000     -0.614300000000000      1.355200000000000
C      -3.005200000000000     -1.467800000000000     -1.162900000000000
C      -1.835400000000000     -1.815600000000000     -0.266500000000000
C      -3.817400000000000     -0.259500000000000     -0.678500000000000
C       0.658100000000000     -2.176700000000000      0.162000000000000
C      -0.544100000000000     -1.815700000000000     -0.651100000000000
C      -2.988500000000000      0.991100000000000     -0.577000000000000
C      -2.202800000000000     -2.215000000000000      1.139900000000000
C      -2.831500000000000      1.800000000000000      0.487800000000000
C      -3.457800000000000      1.592200000000000      1.837200000000000
C      -1.957900000000000      3.022500000000000      0.391300000000000
H       3.635800000000000     -0.253400000000000     -1.166600000000000
H       3.706300000000000      2.229900000000000     -1.489000000000000
H       2.379100000000000      2.428600000000000     -0.345900000000000
H       3.912100000000000      1.360400000000000      1.432000000000000
H       5.163500000000000      1.147800000000000      0.208900000000000
H       2.203600000000000      0.841300000000000     -2.961700000000000
H       1.611100000000000      2.491500000000000     -2.709700000000000
H       0.859500000000000      1.148500000000000     -1.842500000000000
H       5.111000000000000     -1.340900000000000      0.623900000000000
H       5.557000000000000     -0.397600000000000      2.054800000000000
H       3.931700000000000     -1.076900000000000      1.924900000000000
H      -3.667700000000000     -2.339300000000000     -1.237200000000000
H      -2.648200000000000     -1.273300000000000     -2.182900000000000
H      -4.618600000000000     -0.071500000000000     -1.404400000000000
H      -4.318100000000000     -0.510500000000000      0.259800000000000
H       0.533000000000000     -2.006300000000000      1.235900000000000
H       0.877300000000000     -3.240200000000000      0.020600000000000
H      -0.339200000000000     -1.554700000000000     -1.689100000000000
H      -2.479400000000000      1.263400000000000     -1.501200000000000
H      -3.120400000000000     -2.813900000000000      1.135300000000000
H      -2.376000000000000     -1.329000000000000      1.757600000000000
H      -1.444500000000000     -2.832700000000000      1.628700000000000
H      -4.059200000000000      2.466400000000000      2.108900000000000
H      -4.113600000000000      0.722000000000000      1.893300000000000
H      -2.678100000000000      1.463600000000000      2.595600000000000
H      -1.141000000000000      2.962200000000000      1.118100000000000
H      -1.509100000000000      3.138700000000000     -0.601000000000000
H      -2.543200000000000      3.924300000000000      0.598800000000000
