46

O      -0.243100000000000     -0.025000000000000      0.452300000000000
O      -1.688600000000000     -1.754500000000000     -0.037800000000000
C       0.845100000000000     -0.962000000000000      0.534100000000000
C       2.121100000000000     -0.143000000000000      0.846100000000000
C       2.478100000000000      0.925500000000000     -0.193000000000000
C       0.492700000000000     -1.899700000000000      1.695600000000000
C      -3.914100000000000      0.023800000000000     -0.088900000000000
C      -2.492000000000000      0.534600000000000      0.142100000000000
C       0.950500000000000     -1.634300000000000     -0.819200000000000
C      -4.946500000000000      1.155200000000000     -0.110200000000000
C      -1.457500000000000     -0.569100000000000      0.157100000000000
C      -6.361000000000000      0.610200000000000     -0.309000000000000
C       3.766900000000000      1.613800000000000      0.163200000000000
C       5.014400000000000      1.256500000000000     -0.196400000000000
C      -7.395700000000000      1.723800000000000     -0.286200000000000
C       1.320500000000000     -2.894900000000000     -1.076600000000000
C       5.242500000000000      0.049900000000000     -1.066800000000000
C       6.266800000000000      1.989200000000000      0.193700000000000
H       2.966100000000000     -0.833900000000000      0.969600000000000
H       1.985300000000000      0.360900000000000      1.813600000000000
H       1.687100000000000      1.684700000000000     -0.232900000000000
H       2.534100000000000      0.511200000000000     -1.203800000000000
H       1.387100000000000     -2.434300000000000      2.038300000000000
H      -0.238600000000000     -2.675300000000000      1.451900000000000
H       0.096800000000000     -1.339200000000000      2.551000000000000
H      -4.172600000000000     -0.695100000000000      0.698700000000000
H      -3.955000000000000     -0.526200000000000     -1.037600000000000
H      -2.221500000000000      1.238700000000000     -0.652800000000000
H      -2.447100000000000      1.054800000000000      1.105800000000000
H      -4.896100000000000      1.712200000000000      0.833300000000000
H      -4.704400000000000      1.859300000000000     -0.915300000000000
H       0.736800000000000     -1.009400000000000     -1.686300000000000
H      -6.596500000000000     -0.112900000000000      0.480600000000000
H      -6.423700000000000      0.078100000000000     -1.265400000000000
H       3.655200000000000      2.490000000000000      0.800100000000000
H      -8.399300000000000      1.311900000000000     -0.431800000000000
H      -7.207500000000000      2.450300000000000     -1.083200000000000
H      -7.381600000000000      2.253200000000000      0.671900000000000
H       1.374600000000000     -3.252500000000000     -2.099200000000000
H       1.579900000000000     -3.587000000000000     -0.284000000000000
H       5.600300000000000      0.363400000000000     -2.053200000000000
H       6.007900000000000     -0.592300000000000     -0.616500000000000
H       4.362600000000000     -0.579800000000000     -1.213300000000000
H       6.928500000000000      1.334900000000000      0.770100000000000
H       6.045000000000000      2.867100000000000      0.809300000000000
H       6.801600000000000      2.332100000000000     -0.697800000000000
