46

O       0.926000000000000     -2.282600000000000     -0.310600000000000
O      -0.488600000000000     -2.634200000000000      1.477600000000000
C       3.277000000000000      2.167700000000000     -0.087600000000000
C       3.368500000000000      0.714500000000000      0.388600000000000
C       1.909000000000000      2.607500000000000     -0.621400000000000
C       3.153400000000000     -0.305800000000000     -0.732400000000000
C       0.772900000000000      2.400400000000000      0.382300000000000
C       3.274600000000000     -1.753000000000000     -0.237200000000000
C      -0.531000000000000      3.041600000000000     -0.100200000000000
C      -3.002200000000000     -0.883800000000000      0.140900000000000
C      -2.687600000000000      0.150700000000000     -0.944000000000000
C      -2.752400000000000     -2.330800000000000     -0.303700000000000
C      -3.243600000000000      1.546100000000000     -0.643100000000000
C       2.063600000000000     -2.223800000000000      0.566200000000000
C      -1.337900000000000     -2.627300000000000     -0.799000000000000
C      -1.634900000000000      2.787600000000000      0.885600000000000
C      -2.782100000000000      2.130400000000000      0.659500000000000
C      -0.284700000000000     -2.505200000000000      0.278500000000000
H       4.029500000000000      2.340300000000000     -0.866800000000000
H       3.549200000000000      2.820000000000000      0.751800000000000
H       4.367600000000000      0.560700000000000      0.816300000000000
H       2.660700000000000      0.548300000000000      1.206400000000000
H       1.680000000000000      2.076800000000000     -1.552700000000000
H       1.974000000000000      3.671500000000000     -0.881100000000000
H       2.179700000000000     -0.158500000000000     -1.211200000000000
H       3.914200000000000     -0.140200000000000     -1.505300000000000
H       1.057300000000000      2.829300000000000      1.351600000000000
H       0.609200000000000      1.327000000000000      0.538600000000000
H       3.381100000000000     -2.399700000000000     -1.117000000000000
H       4.183600000000000     -1.866300000000000      0.364300000000000
H      -0.779300000000000      2.659400000000000     -1.095500000000000
H      -0.396800000000000      4.125100000000000     -0.200400000000000
H      -2.412500000000000     -0.669000000000000      1.039500000000000
H      -4.057000000000000     -0.798500000000000      0.430400000000000
H      -3.109800000000000     -0.183200000000000     -1.900000000000000
H      -1.602100000000000      0.217900000000000     -1.083500000000000
H      -3.456600000000000     -2.574400000000000     -1.109200000000000
H      -2.996900000000000     -2.997400000000000      0.532600000000000
H      -4.340200000000000      1.503200000000000     -0.628200000000000
H      -2.991400000000000      2.221200000000000     -1.469600000000000
H       2.252000000000000     -3.232700000000000      0.949800000000000
H       1.860100000000000     -1.555900000000000      1.409200000000000
H      -1.084500000000000     -1.965500000000000     -1.633700000000000
H      -1.296000000000000     -3.657400000000000     -1.171600000000000
H      -1.468000000000000      3.167500000000000      1.892100000000000
H      -3.466400000000000      2.014100000000000      1.497900000000000
