46

O      -1.528500000000000      1.625100000000000      2.021600000000000
O      -1.737100000000000      3.243700000000000      0.444000000000000
C      -2.165900000000000     -1.694600000000000      0.290000000000000
C      -0.855600000000000     -2.226400000000000     -0.301900000000000
C      -3.104900000000000     -1.093800000000000     -0.760100000000000
C       0.083200000000000     -2.814900000000000      0.758000000000000
C      -4.402200000000000     -0.543700000000000     -0.165500000000000
C       1.331100000000000     -3.395500000000000      0.160000000000000
C       2.652100000000000     -1.288100000000000      0.444300000000000
C      -5.333600000000000     -0.025900000000000     -1.250900000000000
C       3.682300000000000     -0.527000000000000     -0.396600000000000
C       2.479600000000000     -2.717800000000000      0.018000000000000
C       2.044500000000000      1.985600000000000     -1.389000000000000
C       0.744300000000000      2.548000000000000     -0.795500000000000
C       3.868700000000000      0.904300000000000      0.021600000000000
C       3.173800000000000      1.971700000000000     -0.399200000000000
C       0.185800000000000      1.748400000000000      0.384700000000000
C      -1.117800000000000      2.300900000000000      0.916500000000000
H      -2.683100000000000     -2.511100000000000      0.809000000000000
H      -1.936700000000000     -0.935800000000000      1.046600000000000
H      -1.091900000000000     -2.999100000000000     -1.045100000000000
H      -0.347500000000000     -1.420800000000000     -0.844800000000000
H      -3.343500000000000     -1.863000000000000     -1.505100000000000
H      -2.582300000000000     -0.288800000000000     -1.291700000000000
H      -0.435600000000000     -3.619300000000000      1.294900000000000
H       0.312000000000000     -2.061100000000000      1.520200000000000
H      -4.913500000000000     -1.330200000000000      0.401400000000000
H      -4.173700000000000      0.266900000000000      0.536000000000000
H       1.287700000000000     -4.427600000000000     -0.177800000000000
H       1.705100000000000     -0.746200000000000      0.399900000000000
H       2.981400000000000     -1.281600000000000      1.491300000000000
H      -5.606600000000000     -0.824400000000000     -1.948100000000000
H      -4.861500000000000      0.781400000000000     -1.819900000000000
H      -6.253600000000000      0.365300000000000     -0.805400000000000
H       4.657300000000000     -1.027400000000000     -0.328500000000000
H       3.406500000000000     -0.576500000000000     -1.457200000000000
H       3.338400000000000     -3.233200000000000     -0.403700000000000
H       2.342500000000000      2.609400000000000     -2.240000000000000
H       1.844400000000000      0.986700000000000     -1.789800000000000
H      -0.009800000000000      2.586500000000000     -1.592200000000000
H       0.905900000000000      3.587900000000000     -0.482300000000000
H       4.650300000000000      1.077100000000000      0.759300000000000
H       3.450000000000000      2.940600000000000      0.013300000000000
H       0.904800000000000      1.742900000000000      1.210600000000000
H      -0.004600000000000      0.720700000000000      0.066300000000000
H      -2.371900000000000      1.980300000000000      2.374800000000000
