47

O      -1.205000000000000      0.760600000000000      1.116500000000000
N      -1.552100000000000     -1.003400000000000     -0.429700000000000
C       1.963000000000000     -0.474300000000000     -0.043300000000000
C       1.239200000000000     -1.654700000000000      0.601700000000000
C       2.518400000000000      0.472400000000000      1.029300000000000
C       3.082400000000000     -0.966100000000000     -0.970700000000000
C       0.004700000000000     -1.234200000000000      1.420100000000000
C       3.292900000000000      1.633500000000000      0.410000000000000
C       3.856000000000000      0.197400000000000     -1.586700000000000
C       4.399100000000000      1.141000000000000     -0.517900000000000
C      -2.522700000000000     -0.211800000000000     -1.192600000000000
C      -0.993600000000000     -0.478700000000000      0.602400000000000
C      -3.181600000000000      0.841300000000000     -0.294000000000000
C      -2.116800000000000      1.644400000000000      0.438800000000000
C      -0.662300000000000     -2.465700000000000      2.035600000000000
C      -1.794900000000000      0.412600000000000     -2.391000000000000
C      -3.593600000000000     -1.181800000000000     -1.710400000000000
C      -2.733200000000000      2.567200000000000      1.481600000000000
H       1.254800000000000      0.089400000000000     -0.664600000000000
H       1.932100000000000     -2.208900000000000      1.248300000000000
H       0.927500000000000     -2.352900000000000     -0.186800000000000
H       3.177400000000000     -0.078700000000000      1.712200000000000
H       1.713500000000000      0.899600000000000      1.635300000000000
H       2.660400000000000     -1.582600000000000     -1.773400000000000
H       3.777500000000000     -1.605000000000000     -0.410900000000000
H       0.322400000000000     -0.607200000000000      2.261200000000000
H       3.726600000000000      2.252400000000000      1.203600000000000
H       2.602200000000000      2.273600000000000     -0.152800000000000
H       3.198000000000000      0.754300000000000     -2.265200000000000
H       4.683900000000000     -0.189800000000000     -2.191300000000000
H       4.888400000000000      1.997200000000000     -0.995700000000000
H       5.165400000000000      0.622400000000000      0.071300000000000
H      -3.813700000000000      0.332000000000000      0.446700000000000
H      -3.834500000000000      1.503900000000000     -0.874500000000000
H      -1.529800000000000      2.254600000000000     -0.256000000000000
H       0.025600000000000     -2.983600000000000      2.712300000000000
H      -1.550900000000000     -2.180200000000000      2.609700000000000
H      -0.982000000000000     -3.178300000000000      1.267100000000000
H      -2.472400000000000      1.035300000000000     -2.985100000000000
H      -0.948000000000000      1.032600000000000     -2.079100000000000
H      -1.386800000000000     -0.363700000000000     -3.049100000000000
H      -4.101200000000000     -1.689300000000000     -0.882000000000000
H      -4.351600000000000     -0.657400000000000     -2.302600000000000
H      -3.150700000000000     -1.961600000000000     -2.340700000000000
H      -3.269800000000000      1.994100000000000      2.245700000000000
H      -1.950400000000000      3.128100000000000      2.003900000000000
H      -3.426300000000000      3.278900000000000      1.023100000000000
