47

O      -2.265100000000000     -1.173900000000000     -1.674900000000000
N      -1.983200000000000      0.928200000000000      0.324700000000000
C      -2.757900000000000     -0.303200000000000      0.540300000000000
C      -2.170300000000000     -1.469700000000000     -0.277400000000000
C      -4.156700000000000      0.173000000000000      0.167800000000000
C      -2.745500000000000      1.984100000000000      0.981300000000000
C      -0.680300000000000     -1.666300000000000      0.091000000000000
C      -4.192500000000000      1.625800000000000      0.648100000000000
C      -0.605600000000000      0.793400000000000      0.793000000000000
C       0.073400000000000     -0.351800000000000      0.075900000000000
C      -2.953900000000000     -2.761900000000000     -0.030000000000000
C       1.249500000000000     -0.209400000000000     -0.552500000000000
C       2.030500000000000      1.078400000000000     -0.591600000000000
C       3.546500000000000      0.825500000000000     -0.712200000000000
C       1.550600000000000      1.925100000000000     -1.774700000000000
C       4.165000000000000     -0.026300000000000      0.404600000000000
C       5.655300000000000     -0.303600000000000      0.204000000000000
C       6.240100000000000     -1.067400000000000      1.382300000000000
H      -2.749000000000000     -0.568900000000000      1.608900000000000
H      -4.936500000000000     -0.426600000000000      0.648200000000000
H      -4.329700000000000      0.142100000000000     -0.914200000000000
H      -2.479500000000000      2.976800000000000      0.605000000000000
H      -2.603100000000000      1.974200000000000      2.069200000000000
H      -0.219700000000000     -2.378600000000000     -0.604900000000000
H      -0.598500000000000     -2.090900000000000      1.099800000000000
H      -4.593000000000000      2.272700000000000     -0.140300000000000
H      -4.831600000000000      1.733900000000000      1.531000000000000
H      -0.576800000000000      0.593800000000000      1.872600000000000
H      -0.112600000000000      1.755100000000000      0.640600000000000
H      -2.528300000000000     -3.588500000000000     -0.610500000000000
H      -2.947000000000000     -3.042900000000000      1.028000000000000
H      -3.994500000000000     -2.660900000000000     -0.357600000000000
H       1.665700000000000     -1.059300000000000     -1.088900000000000
H      -1.845300000000000     -0.310700000000000     -1.829500000000000
H       1.896400000000000      1.647400000000000      0.334900000000000
H       4.065800000000000      1.792500000000000     -0.739600000000000
H       3.757000000000000      0.340000000000000     -1.675100000000000
H       0.483800000000000      2.161000000000000     -1.697500000000000
H       2.094900000000000      2.875000000000000     -1.813800000000000
H       1.710400000000000      1.408800000000000     -2.728300000000000
H       3.642100000000000     -0.986900000000000      0.478600000000000
H       4.014700000000000      0.488800000000000      1.361600000000000
H       6.196100000000000      0.642500000000000      0.086300000000000
H       5.805100000000000     -0.880600000000000     -0.715700000000000
H       5.738700000000000     -2.031900000000000      1.512200000000000
H       7.305500000000000     -1.257600000000000      1.219000000000000
H       6.135500000000000     -0.497300000000000      2.310900000000000
