47

O       4.893200000000000     -0.219100000000000     -0.617300000000000
N       2.198400000000000      0.112500000000000      0.085700000000000
C       0.926200000000000     -0.043100000000000      0.552300000000000
C       0.307500000000000      1.218200000000000      1.131900000000000
C      -0.176300000000000      2.227200000000000      0.076900000000000
C      -1.454700000000000      1.819200000000000     -0.666000000000000
C      -2.714300000000000      1.957300000000000      0.197600000000000
C      -4.003600000000000      1.512800000000000     -0.509300000000000
C      -4.055700000000000      0.031100000000000     -0.900500000000000
C      -4.099200000000000     -0.920700000000000      0.302400000000000
C      -3.398100000000000     -2.263700000000000      0.059500000000000
C      -1.888300000000000     -2.177300000000000     -0.204200000000000
C       2.566000000000000     -0.177800000000000     -1.300300000000000
C       3.248500000000000      0.758300000000000      0.873300000000000
C      -1.081200000000000     -1.594600000000000      0.962600000000000
C       0.313400000000000     -1.245900000000000      0.521400000000000
C       3.883000000000000     -0.944600000000000     -1.322600000000000
C       4.535300000000000     -0.049800000000000      0.756500000000000
H      -0.506100000000000      0.981500000000000      1.822900000000000
H       1.034500000000000      1.733400000000000      1.770400000000000
H      -0.343300000000000      3.195000000000000      0.566200000000000
H       0.620000000000000      2.392000000000000     -0.659700000000000
H      -1.566500000000000      2.470300000000000     -1.542200000000000
H      -1.343300000000000      0.802300000000000     -1.048800000000000
H      -2.599500000000000      1.412500000000000      1.137800000000000
H      -2.829800000000000      3.012700000000000      0.476100000000000
H      -4.857500000000000      1.740300000000000      0.140900000000000
H      -4.134000000000000      2.117300000000000     -1.415500000000000
H      -3.228100000000000     -0.194600000000000     -1.576100000000000
H      -4.963500000000000     -0.134700000000000     -1.495300000000000
H      -5.152600000000000     -1.123100000000000      0.536400000000000
H      -3.695300000000000     -0.455400000000000      1.204500000000000
H      -3.873900000000000     -2.762600000000000     -0.793800000000000
H      -3.567900000000000     -2.908200000000000      0.930900000000000
H      -1.702400000000000     -1.606100000000000     -1.120000000000000
H      -1.520200000000000     -3.191100000000000     -0.411600000000000
H       2.681800000000000      0.774300000000000     -1.832400000000000
H       1.793500000000000     -0.753700000000000     -1.822400000000000
H       2.986000000000000      0.825400000000000      1.935000000000000
H       3.403700000000000      1.774200000000000      0.491200000000000
H      -1.021900000000000     -2.336000000000000      1.768200000000000
H      -1.585900000000000     -0.726300000000000      1.381500000000000
H       0.874000000000000     -2.090800000000000      0.120100000000000
H       3.774300000000000     -1.940900000000000     -0.877400000000000
H       4.222900000000000     -1.075300000000000     -2.354700000000000
H       5.355500000000000      0.476400000000000      1.254800000000000
H       4.434700000000000     -1.034800000000000      1.228200000000000
