47

O       5.236100000000000      1.438200000000000     -0.864700000000000
N       1.951300000000000      0.085500000000000      0.218800000000000
C      -2.512700000000000     -1.105100000000000     -0.210600000000000
C      -1.820500000000000      0.170600000000000      0.312500000000000
C      -3.802800000000000     -0.769100000000000     -1.004900000000000
C      -0.405300000000000     -0.003100000000000      0.819100000000000
C      -4.661900000000000      0.260700000000000     -0.290200000000000
C      -2.446100000000000      1.373400000000000      0.327600000000000
C      -3.885000000000000      1.556500000000000     -0.103700000000000
C       0.592600000000000      0.256900000000000     -0.294600000000000
C      -2.875500000000000     -2.019300000000000      0.980500000000000
C      -1.592200000000000     -1.891900000000000     -1.169400000000000
C       2.906200000000000      0.859900000000000     -0.584100000000000
C       2.314600000000000     -1.338400000000000      0.248900000000000
C       4.327300000000000      0.729900000000000     -0.028400000000000
C       3.714600000000000     -1.541200000000000      0.832100000000000
C       4.754200000000000     -0.732500000000000      0.066800000000000
C      -1.794900000000000      2.669000000000000      0.744200000000000
H      -4.392800000000000     -1.677300000000000     -1.181200000000000
H      -3.541700000000000     -0.376200000000000     -1.997500000000000
H      -0.289600000000000     -1.004600000000000      1.243600000000000
H      -0.215200000000000      0.663600000000000      1.669600000000000
H      -5.570800000000000      0.458500000000000     -0.870200000000000
H      -4.991300000000000     -0.123000000000000      0.682200000000000
H      -3.889300000000000      2.115100000000000     -1.048600000000000
H      -4.417100000000000      2.172600000000000      0.631700000000000
H       0.444200000000000     -0.350300000000000     -1.190000000000000
H       0.457600000000000      1.295400000000000     -0.625400000000000
H      -3.468900000000000     -2.879900000000000      0.650300000000000
H      -3.456900000000000     -1.486800000000000      1.741000000000000
H      -1.984300000000000     -2.420100000000000      1.475600000000000
H      -2.118200000000000     -2.771100000000000     -1.562900000000000
H      -0.692300000000000     -2.273200000000000     -0.676700000000000
H      -1.301200000000000     -1.288500000000000     -2.036000000000000
H       2.886600000000000      0.548500000000000     -1.637800000000000
H       2.637300000000000      1.924300000000000     -0.576800000000000
H       1.618300000000000     -1.910000000000000      0.871200000000000
H       2.276200000000000     -1.772200000000000     -0.759400000000000
H       4.369400000000000      1.191000000000000      0.966400000000000
H       3.978300000000000     -2.604400000000000      0.801100000000000
H       3.720600000000000     -1.240300000000000      1.887400000000000
H       5.733300000000000     -0.810400000000000      0.553800000000000
H       4.886100000000000     -1.147100000000000     -0.941000000000000
H      -2.277800000000000      3.054700000000000      1.648300000000000
H      -0.725800000000000      2.594600000000000      0.949400000000000
H      -1.909700000000000      3.415000000000000     -0.050000000000000
H       6.124600000000000      1.339200000000000     -0.482000000000000
