47

O      -2.131800000000000     -2.614600000000000      0.167400000000000
N      -2.206100000000000     -0.395500000000000     -0.555200000000000
C      -2.351900000000000      2.526000000000000      0.469300000000000
C      -3.648200000000000      1.998200000000000      1.078100000000000
C      -2.163400000000000      2.126200000000000     -0.992700000000000
C      -3.734600000000000      0.478600000000000      1.190100000000000
C      -1.523300000000000      0.750300000000000     -1.171100000000000
C      -3.605200000000000     -0.244700000000000     -0.146900000000000
C      -1.587100000000000     -1.633600000000000     -0.341500000000000
C       3.005300000000000     -0.979600000000000      1.130000000000000
C       3.464900000000000     -0.020100000000000      0.030500000000000
C       3.020000000000000     -2.451700000000000      0.701700000000000
C       3.399400000000000      1.434500000000000      0.501600000000000
C       2.065400000000000     -2.827900000000000     -0.436900000000000
C      -0.178100000000000     -1.773400000000000     -0.767600000000000
C       0.617400000000000     -2.615800000000000     -0.098100000000000
C       3.826600000000000      2.397400000000000     -0.605900000000000
C       3.730700000000000      3.845600000000000     -0.152900000000000
H      -1.491000000000000      2.212000000000000      1.071300000000000
H      -2.385900000000000      3.621500000000000      0.521100000000000
H      -4.500600000000000      2.367100000000000      0.493700000000000
H      -3.758900000000000      2.424300000000000      2.083000000000000
H      -1.496800000000000      2.858900000000000     -1.465500000000000
H      -3.113400000000000      2.189500000000000     -1.535800000000000
H      -4.712800000000000      0.234800000000000      1.622800000000000
H      -2.977700000000000      0.115000000000000      1.895900000000000
H      -0.500600000000000      0.794300000000000     -0.778400000000000
H      -1.445700000000000      0.530000000000000     -2.242600000000000
H      -4.167100000000000      0.249700000000000     -0.946600000000000
H      -4.050300000000000     -1.240300000000000     -0.036400000000000
H       2.000500000000000     -0.702300000000000      1.470200000000000
H       3.667300000000000     -0.867600000000000      1.997900000000000
H       4.489700000000000     -0.268000000000000     -0.270400000000000
H       2.830300000000000     -0.130900000000000     -0.855600000000000
H       4.040400000000000     -2.723000000000000      0.403000000000000
H       2.785000000000000     -3.066600000000000      1.580200000000000
H       2.375700000000000      1.671400000000000      0.817000000000000
H       4.046600000000000      1.568200000000000      1.376800000000000
H       2.339900000000000     -2.290200000000000     -1.351600000000000
H       2.201500000000000     -3.892900000000000     -0.663400000000000
H       0.193500000000000     -1.200300000000000     -1.607800000000000
H       4.857500000000000      2.181400000000000     -0.909600000000000
H       3.191800000000000      2.255800000000000     -1.488400000000000
H       0.238800000000000     -3.186700000000000      0.746300000000000
H       4.377200000000000      4.029900000000000      0.711000000000000
H       2.703500000000000      4.102500000000000      0.125100000000000
H       4.042100000000000      4.516500000000000     -0.959700000000000
