47

O       2.744700000000000      1.063400000000000     -1.537600000000000
N       3.614300000000000      0.725900000000000      0.588300000000000
C      -3.448700000000000      2.252900000000000      0.443700000000000
C      -2.139600000000000      1.692200000000000     -0.126200000000000
C       4.887300000000000     -1.309000000000000     -0.009600000000000
C      -4.682300000000000      1.461200000000000     -0.003600000000000
C      -0.913200000000000      2.523000000000000      0.266400000000000
C       4.894600000000000      0.214400000000000      0.158600000000000
C       4.540400000000000     -1.981600000000000      1.319100000000000
C       6.233500000000000     -1.827000000000000     -0.520800000000000
C      -4.674500000000000      0.040200000000000      0.480900000000000
C       0.358500000000000      2.015300000000000     -0.351800000000000
C      -4.772200000000000     -2.445300000000000      0.156500000000000
C      -4.764100000000000     -1.024800000000000     -0.329700000000000
C      -3.664200000000000     -3.298100000000000     -0.466600000000000
C       1.410800000000000      1.599600000000000      0.366300000000000
C       2.639200000000000      1.110400000000000     -0.316200000000000
C      -2.264300000000000     -2.812700000000000     -0.117900000000000
H      -3.566600000000000      3.294000000000000      0.119300000000000
H      -3.393500000000000      2.267100000000000      1.539400000000000
H      -1.991700000000000      0.662800000000000      0.222100000000000
H      -2.215200000000000      1.648500000000000     -1.220400000000000
H       4.116500000000000     -1.584600000000000     -0.740800000000000
H      -4.764500000000000      1.502900000000000     -1.096500000000000
H      -5.577400000000000      1.952300000000000      0.396900000000000
H      -1.058000000000000      3.560000000000000     -0.060800000000000
H      -0.830000000000000      2.548800000000000      1.360000000000000
H       5.169800000000000      0.695300000000000     -0.787000000000000
H       5.631000000000000      0.518400000000000      0.911100000000000
H       5.251300000000000     -1.703400000000000      2.104900000000000
H       4.563700000000000     -3.072100000000000      1.217000000000000
H       3.535000000000000     -1.710900000000000      1.657500000000000
H       6.480300000000000     -1.372400000000000     -1.485900000000000
H       7.041200000000000     -1.592700000000000      0.180800000000000
H       6.206700000000000     -2.913100000000000     -0.658700000000000
H      -4.604200000000000     -0.110600000000000      1.555300000000000
H       0.393500000000000      2.007500000000000     -1.438300000000000
H       3.442600000000000      0.796900000000000      1.587100000000000
H      -5.742000000000000     -2.887900000000000     -0.101000000000000
H      -4.690100000000000     -2.485400000000000      1.249600000000000
H      -4.849600000000000     -0.873700000000000     -1.402900000000000
H      -3.777600000000000     -4.330500000000000     -0.115000000000000
H      -3.776300000000000     -3.321100000000000     -1.557400000000000
H       1.385300000000000      1.608400000000000      1.450900000000000
H      -2.127200000000000     -2.755600000000000      0.966600000000000
H      -2.062900000000000     -1.825700000000000     -0.545000000000000
H      -1.516800000000000     -3.505500000000000     -0.517500000000000
