47

O       3.050100000000000      1.619300000000000     -0.847900000000000
N       3.567100000000000      0.131700000000000      0.858000000000000
C      -4.446400000000000     -0.447200000000000      0.076700000000000
C      -4.218500000000000      0.578800000000000     -1.036500000000000
C      -4.299300000000000     -1.876200000000000     -0.452900000000000
C      -4.374300000000000      2.030900000000000     -0.569000000000000
C      -4.553500000000000     -2.946200000000000      0.611000000000000
C      -3.363300000000000      2.494800000000000      0.485000000000000
C       5.198900000000000     -1.174100000000000     -0.465500000000000
C       4.962500000000000     -0.024000000000000      0.519800000000000
C      -4.433100000000000     -4.367600000000000      0.083800000000000
C      -1.944100000000000      2.455300000000000     -0.005100000000000
C       4.718000000000000     -2.492300000000000      0.142000000000000
C       6.673900000000000     -1.287400000000000     -0.857500000000000
C      -0.981100000000000      1.718300000000000      0.568500000000000
C       2.723900000000000      0.953900000000000      0.129900000000000
C       0.382800000000000      1.686300000000000      0.088900000000000
C       1.336500000000000      0.945700000000000      0.670600000000000
H      -5.448200000000000     -0.312400000000000      0.501500000000000
H      -3.725700000000000     -0.297100000000000      0.887600000000000
H      -3.227100000000000      0.432200000000000     -1.481000000000000
H      -4.945700000000000      0.399700000000000     -1.838500000000000
H      -4.999700000000000     -2.027300000000000     -1.283700000000000
H      -3.289900000000000     -2.009300000000000     -0.861600000000000
H      -5.385800000000000      2.168700000000000     -0.166800000000000
H      -4.301500000000000      2.685300000000000     -1.447300000000000
H      -5.557400000000000     -2.809600000000000      1.030400000000000
H      -3.843800000000000     -2.812800000000000      1.436200000000000
H      -3.595500000000000      3.532900000000000      0.753800000000000
H      -3.481900000000000      1.911800000000000      1.405300000000000
H       4.617500000000000     -0.988800000000000     -1.377700000000000
H       5.331700000000000      0.916400000000000      0.094800000000000
H       5.502800000000000     -0.198500000000000      1.457200000000000
H      -5.156300000000000     -4.549100000000000     -0.717500000000000
H      -4.623600000000000     -5.088100000000000      0.885200000000000
H      -3.429200000000000     -4.553300000000000     -0.311000000000000
H      -1.712500000000000      3.073500000000000     -0.869700000000000
H       5.231000000000000     -2.707600000000000      1.085800000000000
H       4.911800000000000     -3.325700000000000     -0.542200000000000
H       3.640500000000000     -2.477600000000000      0.335300000000000
H       7.302400000000000     -1.488800000000000      0.016600000000000
H       7.022900000000000     -0.357600000000000     -1.318800000000000
H       6.824800000000000     -2.097200000000000     -1.579000000000000
H       3.212100000000000     -0.386800000000000      1.656300000000000
H      -1.220300000000000      1.105700000000000      1.434100000000000
H       0.610900000000000      2.298500000000000     -0.779800000000000
H       1.123500000000000      0.329300000000000      1.538500000000000
