47

O      -0.033200000000000     -0.134300000000000     -2.207000000000000
N      -1.247700000000000      0.039400000000000     -0.232700000000000
C       1.586500000000000      0.291100000000000      0.773500000000000
C       3.371700000000000     -0.092200000000000     -0.502800000000000
C       1.078400000000000     -0.770500000000000     -0.224600000000000
C       2.547900000000000      1.122000000000000     -0.081900000000000
C       2.297300000000000     -0.997800000000000     -1.134900000000000
C       2.563500000000000     -0.392100000000000      1.746600000000000
C       3.785900000000000     -0.677800000000000      0.859300000000000
C      -0.109800000000000     -0.261900000000000     -0.982200000000000
C      -1.574200000000000     -0.659200000000000      1.003800000000000
C      -2.194600000000000      1.077100000000000     -0.633100000000000
C      -2.444100000000000     -1.897800000000000      0.761500000000000
C      -1.833300000000000      2.450300000000000     -0.055900000000000
C      -1.701300000000000     -2.894200000000000     -0.129200000000000
C      -3.786500000000000     -1.529200000000000      0.125700000000000
C      -0.457200000000000      2.885600000000000     -0.560700000000000
C      -1.849100000000000      2.441400000000000      1.474400000000000
H       0.827200000000000      0.858900000000000      1.304600000000000
H       4.215300000000000      0.113700000000000     -1.164400000000000
H       0.830100000000000     -1.713400000000000      0.266100000000000
H       3.121000000000000      1.852900000000000      0.498400000000000
H       2.085000000000000      1.616900000000000     -0.939900000000000
H       2.608600000000000     -2.048600000000000     -1.126600000000000
H       2.150600000000000     -0.713700000000000     -2.181100000000000
H       2.151900000000000     -1.304700000000000      2.189100000000000
H       2.840800000000000      0.286700000000000      2.561200000000000
H       4.666500000000000     -0.159600000000000      1.255300000000000
H       4.014100000000000     -1.747000000000000      0.805200000000000
H      -2.118300000000000     -0.006100000000000      1.686700000000000
H      -0.674100000000000     -0.965400000000000      1.540700000000000
H      -3.211500000000000      0.832900000000000     -0.327900000000000
H      -2.195100000000000      1.137500000000000     -1.728000000000000
H      -2.640700000000000     -2.373600000000000      1.730400000000000
H      -2.580800000000000      3.169800000000000     -0.412700000000000
H      -1.519300000000000     -2.515000000000000     -1.138400000000000
H      -0.752600000000000     -3.199800000000000      0.320300000000000
H      -2.300800000000000     -3.805500000000000     -0.241300000000000
H      -3.686700000000000     -1.208200000000000     -0.915600000000000
H      -4.306800000000000     -0.761200000000000      0.706600000000000
H      -4.438600000000000     -2.410800000000000      0.113800000000000
H      -0.387800000000000      3.979000000000000     -0.505900000000000
H      -0.286400000000000      2.611200000000000     -1.605600000000000
H       0.347500000000000      2.513700000000000      0.062700000000000
H      -1.726600000000000      3.467000000000000      1.843100000000000
H      -2.810300000000000      2.083500000000000      1.857200000000000
H      -1.038800000000000      1.860200000000000      1.918400000000000
