47

O       4.253600000000000     -2.739000000000000     -0.107500000000000
N       0.940400000000000      0.610900000000000      0.259100000000000
C       4.682600000000000      0.884100000000000     -0.107000000000000
C       3.288500000000000      1.246800000000000      0.451800000000000
C       5.066500000000000     -0.531500000000000      0.353400000000000
C       2.238800000000000      0.178400000000000      0.241300000000000
C       5.718100000000000      1.888800000000000      0.429800000000000
C       4.690400000000000      0.968600000000000     -1.648100000000000
C       3.986600000000000     -1.550200000000000      0.061600000000000
C       2.571200000000000     -1.108000000000000      0.046100000000000
C      -0.196700000000000     -0.264100000000000      0.105100000000000
C      -1.502500000000000      0.524800000000000      0.176000000000000
C      -2.738000000000000     -0.366100000000000      0.010500000000000
C      -4.056700000000000      0.414600000000000      0.014200000000000
C      -5.334200000000000     -0.426900000000000     -0.064100000000000
C      -6.616800000000000      0.403900000000000      0.008000000000000
C      -7.856100000000000     -0.474900000000000     -0.166700000000000
C      -9.135700000000000      0.339900000000000     -0.063500000000000
H       3.354100000000000      1.438500000000000      1.531600000000000
H       2.957800000000000      2.187400000000000     -0.009500000000000
H       5.987500000000000     -0.854300000000000     -0.146900000000000
H       5.247000000000000     -0.555200000000000      1.435300000000000
H       5.761200000000000      1.868900000000000      1.524600000000000
H       5.470900000000000      2.912100000000000      0.125400000000000
H       6.722000000000000      1.660700000000000      0.054300000000000
H       3.975000000000000      0.279500000000000     -2.107800000000000
H       5.681600000000000      0.727300000000000     -2.048800000000000
H       4.435200000000000      1.979600000000000     -1.986200000000000
H       1.839200000000000     -1.891500000000000     -0.115300000000000
H       0.782400000000000      1.600100000000000      0.422700000000000
H      -0.198000000000000     -1.023600000000000      0.896500000000000
H      -0.147300000000000     -0.778600000000000     -0.862300000000000
H      -1.504000000000000      1.296000000000000     -0.604900000000000
H      -1.561100000000000      1.053900000000000      1.135500000000000
H      -2.661200000000000     -0.926300000000000     -0.929400000000000
H      -2.757200000000000     -1.106200000000000      0.819900000000000
H      -4.097700000000000      1.020700000000000      0.928400000000000
H      -4.048600000000000      1.122700000000000     -0.824200000000000
H      -5.320700000000000     -0.999000000000000     -1.000000000000000
H      -5.331900000000000     -1.158400000000000      0.753400000000000
H      -6.600400000000000      1.173000000000000     -0.773600000000000
H      -6.661400000000000      0.923800000000000      0.972500000000000
H      -7.824500000000000     -0.974300000000000     -1.142100000000000
H      -7.867500000000000     -1.259000000000000      0.599400000000000
H      -9.170500000000001      1.114800000000000     -0.835900000000000
H      -9.213800000000001      0.825400000000000      0.914600000000000
H     -10.008699999999999     -0.307600000000000     -0.192100000000000
