48

N       3.881800000000000      0.195500000000000      0.452600000000000
N      -2.919800000000000      0.402000000000000      1.424300000000000
C       1.669500000000000      0.513700000000000     -0.625500000000000
C       0.205800000000000      0.018400000000000     -0.716000000000000
C       2.477000000000000     -0.238700000000000      0.454500000000000
C       0.181200000000000     -1.507200000000000     -0.923600000000000
C       0.981800000000000     -2.271800000000000      0.140600000000000
C       2.425300000000000     -1.754600000000000      0.215200000000000
C       1.784400000000000      2.031100000000000     -0.417300000000000
C      -0.671300000000000      0.420300000000000      0.475700000000000
C      -2.129500000000000      0.028700000000000      0.244500000000000
C       3.252000000000000      2.446000000000000     -0.351200000000000
C       4.006600000000000      1.632100000000000      0.696700000000000
C       0.965000000000000     -3.772000000000000     -0.152800000000000
C      -2.676900000000000      0.712200000000000     -1.016100000000000
C      -4.156500000000000      0.397100000000000     -1.217900000000000
C      -4.327900000000000      0.036700000000000      1.268800000000000
C      -4.948200000000000      0.710400000000000      0.047200000000000
H       2.132900000000000      0.291500000000000     -1.600000000000000
H      -0.184600000000000      0.484800000000000     -1.626100000000000
H       2.054700000000000     -0.036100000000000      1.447400000000000
H       0.637400000000000     -1.711400000000000     -1.903600000000000
H      -0.830900000000000     -1.909800000000000     -1.009000000000000
H       0.507300000000000     -2.126700000000000      1.118800000000000
H       2.957900000000000     -2.274000000000000      1.022500000000000
H       2.949900000000000     -2.004500000000000     -0.717600000000000
H       1.308100000000000      2.336800000000000      0.520400000000000
H       1.282400000000000      2.567500000000000     -1.230400000000000
H      -0.304500000000000     -0.031700000000000      1.404200000000000
H      -0.628600000000000      1.505100000000000      0.625700000000000
H      -2.220100000000000     -1.057000000000000      0.147400000000000
H       4.300300000000000     -0.025800000000000     -0.451200000000000
H       3.717600000000000      2.306600000000000     -1.335000000000000
H       3.323600000000000      3.513200000000000     -0.112600000000000
H       5.067400000000000      1.904700000000000      0.676700000000000
H       3.640400000000000      1.871500000000000      1.702400000000000
H       1.512600000000000     -4.324400000000000      0.618100000000000
H      -0.061800000000000     -4.152300000000000     -0.171200000000000
H       1.426100000000000     -3.994700000000000     -1.121000000000000
H      -2.164800000000000      0.369600000000000     -1.919500000000000
H      -2.540900000000000      1.799600000000000     -0.953700000000000
H      -2.851700000000000      1.409700000000000      1.569700000000000
H      -4.274200000000000     -0.664300000000000     -1.469100000000000
H      -4.552800000000000      0.973500000000000     -2.061100000000000
H      -4.874200000000000      0.338800000000000      2.169000000000000
H      -4.425000000000000     -1.053100000000000      1.194600000000000
H      -4.977000000000000      1.796700000000000      0.200200000000000
H      -5.985200000000000      0.377300000000000     -0.073400000000000
