48

N       0.094200000000000      0.747600000000000     -0.087600000000000
N       3.674800000000000     -0.091000000000000      0.430400000000000
C      -3.208000000000000     -0.464900000000000     -0.582100000000000
C      -2.421200000000000      0.811500000000000     -0.165800000000000
C      -2.756600000000000     -1.243100000000000      0.688000000000000
C      -2.939100000000000      1.110100000000000      1.261400000000000
C      -3.189000000000000     -0.301400000000000      1.841600000000000
C      -1.209500000000000     -1.211000000000000      0.625300000000000
C      -1.053800000000000      0.189500000000000      0.087000000000000
C      -2.748500000000000     -1.099100000000000     -1.911200000000000
C      -4.735600000000000     -0.286900000000000     -0.687500000000000
C      -2.462800000000000      1.987800000000000     -1.112900000000000
C       1.233000000000000     -0.084500000000000      0.277500000000000
C       2.514600000000000      0.703300000000000      0.047300000000000
C       3.983800000000000     -1.084200000000000     -0.600100000000000
C       4.834700000000000      0.770500000000000      0.668200000000000
C       5.150500000000000     -1.963400000000000     -0.182800000000000
C       5.238500000000000      1.509000000000000     -0.596700000000000
H      -3.158900000000000     -2.254400000000000      0.786400000000000
H      -3.864400000000000      1.696000000000000      1.254100000000000
H      -2.204000000000000      1.655000000000000      1.865300000000000
H      -2.612800000000000     -0.469900000000000      2.757600000000000
H      -4.246700000000000     -0.435600000000000      2.091700000000000
H      -0.820600000000000     -1.955700000000000     -0.073200000000000
H      -0.763600000000000     -1.341000000000000      1.613800000000000
H      -1.662900000000000     -1.176500000000000     -2.016300000000000
H      -3.159600000000000     -2.109700000000000     -2.014100000000000
H      -3.099000000000000     -0.507900000000000     -2.765100000000000
H      -5.225200000000000     -1.261400000000000     -0.797400000000000
H      -5.192700000000000      0.204200000000000      0.174400000000000
H      -4.996100000000000      0.316800000000000     -1.564300000000000
H      -3.487600000000000      2.336000000000000     -1.274900000000000
H      -2.031300000000000      1.731500000000000     -2.086100000000000
H      -1.883000000000000      2.828200000000000     -0.715600000000000
H       1.233700000000000     -0.992000000000000     -0.334300000000000
H       1.190600000000000     -0.363900000000000      1.337700000000000
H       2.554000000000000      1.035200000000000     -0.998400000000000
H       2.450800000000000      1.612500000000000      0.660900000000000
H       3.133300000000000     -1.764800000000000     -0.716900000000000
H       4.157000000000000     -0.658700000000000     -1.594900000000000
H       4.587700000000000      1.503100000000000      1.447700000000000
H       5.683500000000000      0.214400000000000      1.079800000000000
H       6.113100000000000     -1.448600000000000     -0.256300000000000
H       5.027900000000000     -2.342200000000000      0.837800000000000
H       5.209300000000000     -2.833400000000000     -0.846700000000000
H       5.630800000000000      0.851600000000000     -1.377400000000000
H       4.441400000000000      2.128000000000000     -1.017500000000000
H       6.055200000000000      2.198400000000000     -0.349700000000000
