48

N       6.100200000000000     -0.218000000000000     -0.125700000000000
N       7.932100000000000      0.611500000000000      0.781800000000000
C      -1.436400000000000      0.229200000000000      0.160200000000000
C      -2.751900000000000     -0.525500000000000     -0.039100000000000
C      -0.231400000000000     -0.694400000000000     -0.026000000000000
C      -3.957200000000000      0.390200000000000      0.180400000000000
C       1.084400000000000      0.067700000000000      0.140300000000000
C      -5.272300000000000     -0.356100000000000     -0.051100000000000
C       2.289600000000000     -0.849300000000000     -0.078400000000000
C      -6.477500000000000      0.568600000000000      0.135600000000000
C       3.605200000000000     -0.076800000000000      0.052000000000000
C      -7.790200000000000     -0.172200000000000     -0.129300000000000
C       4.837400000000000     -0.938000000000000     -0.237200000000000
C      -9.030500000000000      0.700500000000000      0.074000000000000
C     -10.338600000000000     -0.038500000000000     -0.163200000000000
C       6.727000000000000      0.445200000000000     -1.130600000000000
C       6.847500000000000     -0.097800000000000      1.001900000000000
C       7.862900000000000      0.953600000000000     -0.545500000000000
H      -1.378900000000000      1.059100000000000     -0.554600000000000
H      -1.410500000000000      0.666000000000000      1.165900000000000
H      -2.802000000000000     -1.369900000000000      0.659100000000000
H      -2.784900000000000     -0.942000000000000     -1.053200000000000
H      -0.277700000000000     -1.512700000000000      0.702800000000000
H      -0.268700000000000     -1.147600000000000     -1.024100000000000
H      -3.896200000000000      1.245600000000000     -0.503500000000000
H      -3.935600000000000      0.790200000000000      1.201400000000000
H       1.120000000000000      0.896900000000000     -0.576800000000000
H       1.132600000000000      0.506100000000000      1.144500000000000
H      -5.283900000000000     -0.771500000000000     -1.066200000000000
H      -5.344000000000000     -1.200600000000000      0.644900000000000
H       2.271300000000000     -1.668700000000000      0.650100000000000
H       2.230600000000000     -1.300900000000000     -1.076100000000000
H      -6.480300000000000      0.967500000000000      1.157100000000000
H      -6.398100000000000      1.424000000000000     -0.546000000000000
H       3.596300000000000      0.777800000000000     -0.636600000000000
H       3.682700000000000      0.343000000000000      1.063000000000000
H      -7.788000000000000     -0.558800000000000     -1.156000000000000
H      -7.853900000000000     -1.042400000000000      0.535900000000000
H       4.887100000000000     -1.784800000000000      0.457600000000000
H       4.790800000000000     -1.349300000000000     -1.252600000000000
H      -9.030799999999999      1.098300000000000      1.095800000000000
H      -8.982300000000000      1.562200000000000     -0.602300000000000
H     -10.438700000000001     -0.884700000000000      0.523900000000000
H     -11.188700000000001      0.632200000000000     -0.004900000000000
H     -10.390599999999999     -0.419800000000000     -1.187800000000000
H       6.335300000000000      0.503400000000000     -2.136600000000000
H       6.563900000000000     -0.537700000000000      1.948300000000000
H       8.634100000000000      1.548500000000000     -1.012600000000000
