48

N       5.210800000000000     -0.289100000000000     -0.280500000000000
N       7.060600000000000      0.246200000000000      0.825800000000000
C      -2.423400000000000      0.089200000000000      0.299700000000000
C      -1.179700000000000      0.090100000000000     -0.595100000000000
C      -3.733900000000000      0.162100000000000     -0.485300000000000
C       0.163500000000000     -0.042000000000000      0.134200000000000
C      -4.946900000000000      0.065100000000000      0.443200000000000
C       1.365600000000000     -0.051600000000000     -0.813700000000000
C      -6.253300000000000      0.099800000000000     -0.353200000000000
C       2.710000000000000     -0.185100000000000     -0.089200000000000
C      -7.503500000000000     -0.011500000000000      0.523400000000000
C       3.946600000000000     -0.143000000000000     -0.993000000000000
C      -8.804000000000000     -0.053700000000000     -0.280500000000000
C       5.977600000000000      0.713300000000000      0.245300000000000
C     -10.010400000000001     -0.240100000000000      0.627200000000000
C       5.845400000000000     -1.470600000000000     -0.018800000000000
C       6.984500000000000     -1.114600000000000      0.664300000000000
C       5.590600000000000      2.135600000000000      0.146100000000000
H      -2.366400000000000      0.935000000000000      0.995700000000000
H      -2.416800000000000     -0.823100000000000      0.909000000000000
H      -1.171700000000000      1.016200000000000     -1.183900000000000
H      -1.265900000000000     -0.733400000000000     -1.315400000000000
H      -3.771300000000000      1.101300000000000     -1.050100000000000
H      -3.766600000000000     -0.655600000000000     -1.215500000000000
H       0.267300000000000      0.787200000000000      0.844400000000000
H       0.160900000000000     -0.966900000000000      0.723800000000000
H      -4.896700000000000     -0.865500000000000      1.021000000000000
H      -4.931300000000000      0.894200000000000      1.160700000000000
H       1.260600000000000     -0.878600000000000     -1.526500000000000
H       1.367600000000000      0.874900000000000     -1.400700000000000
H      -6.303300000000000      1.031000000000000     -0.931100000000000
H      -6.252600000000000     -0.723100000000000     -1.078900000000000
H       2.788500000000000      0.613800000000000      0.659100000000000
H       2.714100000000000     -1.126200000000000      0.476100000000000
H      -7.429000000000000     -0.920400000000000      1.133500000000000
H      -7.532400000000000      0.835400000000000      1.220000000000000
H       3.983600000000000      0.793600000000000     -1.559200000000000
H       3.901900000000000     -0.956400000000000     -1.727300000000000
H      -8.768100000000000     -0.877500000000000     -1.002700000000000
H      -8.917100000000000      0.875000000000000     -0.851500000000000
H      -9.940899999999999     -1.179500000000000      1.185000000000000
H     -10.091100000000001      0.581700000000000      1.345800000000000
H     -10.930099999999999     -0.264600000000000      0.034300000000000
H       5.448100000000000     -2.427600000000000     -0.327400000000000
H       7.753100000000000     -1.769100000000000      1.048700000000000
H       5.590400000000000      2.469200000000000     -0.896000000000000
H       4.598900000000000      2.309500000000000      0.574000000000000
H       6.301300000000000      2.762500000000000      0.694500000000000
