48

N      -1.431800000000000      0.001600000000000      0.201200000000000
N       1.431500000000000      0.001500000000000     -0.198700000000000
C      -2.812800000000000      0.001600000000000     -0.277500000000000
C       2.813200000000000      0.001500000000000      0.277900000000000
C       0.724700000000000      1.206900000000000      0.251100000000000
C      -0.724500000000000      1.207200000000000     -0.247600000000000
C       0.724900000000000     -1.204200000000000      0.250700000000000
C      -0.724700000000000     -1.204400000000000     -0.246700000000000
C      -3.530400000000000     -1.264800000000000      0.202800000000000
C      -3.533100000000000      1.263600000000000      0.209900000000000
C       3.530100000000000     -1.264700000000000     -0.203500000000000
C       3.532700000000000      1.263600000000000     -0.210400000000000
C      -5.000200000000000     -1.263500000000000     -0.214000000000000
C      -5.002700000000000      1.261600000000000     -0.207500000000000
C       5.000500000000000     -1.263600000000000      0.211200000000000
C       5.002900000000000      1.261600000000000      0.205000000000000
C      -5.718500000000000     -0.002900000000000      0.258900000000000
C       5.718100000000000     -0.002800000000000     -0.262600000000000
H      -2.826600000000000      0.004400000000000     -1.377500000000000
H       2.828700000000000      0.004300000000000      1.377800000000000
H       1.163100000000000      2.117000000000000     -0.168000000000000
H       0.743800000000000      1.294100000000000      1.345900000000000
H       0.744800000000000     -1.292100000000000      1.345400000000000
H       1.162600000000000     -2.114000000000000     -0.169800000000000
H      -1.163000000000000      2.116900000000000      0.172000000000000
H      -0.743400000000000      1.295000000000000     -1.342400000000000
H      -0.744500000000000     -1.293500000000000     -1.341200000000000
H      -1.162500000000000     -2.113700000000000      0.174800000000000
H      -3.463500000000000     -1.355200000000000      1.294800000000000
H      -3.104200000000000     -2.174300000000000     -0.231700000000000
H      -3.108200000000000      2.176400000000000     -0.218500000000000
H      -3.466900000000000      1.347600000000000      1.302600000000000
H       3.461700000000000     -1.355100000000000     -1.295400000000000
H       3.104700000000000     -2.174300000000000      0.231400000000000
H       3.108600000000000      2.176500000000000      0.218700000000000
H       3.464900000000000      1.347700000000000     -1.302900000000000
H      -5.501100000000000     -2.147800000000000      0.196300000000000
H      -5.070700000000000     -1.334700000000000     -1.306600000000000
H      -5.073100000000000      1.338200000000000     -1.299700000000000
H      -5.505500000000000      2.142700000000000      0.207200000000000
H       5.500800000000000     -2.147700000000000     -0.200100000000000
H       5.072800000000000     -1.334800000000000      1.303600000000000
H       5.074800000000000      1.338000000000000      1.297100000000000
H       5.505100000000000      2.142800000000000     -0.210300000000000
H      -6.748500000000000     -0.003000000000000     -0.115100000000000
H      -5.775800000000000     -0.005800000000000      1.354300000000000
H       6.748700000000000     -0.002800000000000      0.109800000000000
H       5.773900000000000     -0.005600000000000     -1.358200000000000
