48

N      -2.846700000000000     -0.409000000000000     -0.306600000000000
N       2.080200000000000      0.505300000000000      0.226300000000000
C      -2.055200000000000      1.747400000000000      0.470500000000000
C       0.429900000000000      2.205500000000000      0.742800000000000
C      -0.697700000000000      1.176100000000000      0.904800000000000
C      -1.988600000000000      2.283400000000000     -0.965200000000000
C       0.480800000000000      2.738100000000000     -0.694800000000000
C      -0.867000000000000      3.304800000000000     -1.132400000000000
C      -3.151200000000000      0.691100000000000      0.600800000000000
C       1.774600000000000      1.599300000000000      1.140800000000000
C      -2.694200000000000     -1.538200000000000      0.294900000000000
C       3.202800000000000     -0.073200000000000      0.481300000000000
C      -2.367500000000000     -2.787600000000000     -0.488000000000000
C       3.684200000000000     -1.224500000000000     -0.369100000000000
C      -2.968900000000000     -3.993600000000000      0.222100000000000
C      -0.854800000000000     -2.916100000000000     -0.613800000000000
C       3.830400000000000     -2.463900000000000      0.504300000000000
C       5.009000000000000     -0.845000000000000     -1.018700000000000
H      -2.308900000000000      2.581500000000000      1.138500000000000
H       0.226200000000000      3.047500000000000      1.417900000000000
H      -0.461800000000000      0.283000000000000      0.314800000000000
H      -0.754100000000000      0.855700000000000      1.952800000000000
H      -2.943800000000000      2.749800000000000     -1.234600000000000
H      -1.820800000000000      1.468800000000000     -1.680300000000000
H       0.764000000000000      1.944800000000000     -1.397500000000000
H       1.244600000000000      3.520700000000000     -0.776200000000000
H      -0.810700000000000      3.622300000000000     -2.179800000000000
H      -1.096500000000000      4.199400000000000     -0.540400000000000
H      -4.118100000000000      1.121500000000000      0.314100000000000
H      -3.248600000000000      0.388000000000000      1.651300000000000
H       1.724700000000000      1.236900000000000      2.175300000000000
H       2.552900000000000      2.371200000000000      1.088700000000000
H      -2.734700000000000     -1.637900000000000      1.395000000000000
H       3.852800000000000      0.242700000000000      1.317900000000000
H      -2.802900000000000     -2.694900000000000     -1.489900000000000
H       2.942000000000000     -1.421200000000000     -1.151900000000000
H      -2.779100000000000     -4.912100000000000     -0.342900000000000
H      -4.053200000000000     -3.879900000000000      0.330300000000000
H      -2.549600000000000     -4.119700000000000      1.226600000000000
H      -0.375100000000000     -2.972300000000000      0.369900000000000
H      -0.584300000000000     -3.814300000000000     -1.178500000000000
H      -0.431400000000000     -2.049500000000000     -1.133600000000000
H       2.874400000000000     -2.722200000000000      0.973200000000000
H       4.557400000000000     -2.304300000000000      1.308500000000000
H       4.160400000000000     -3.322800000000000     -0.089000000000000
H       5.777100000000000     -0.631000000000000     -0.267100000000000
H       5.374800000000000     -1.653400000000000     -1.660100000000000
H       4.895100000000000      0.053100000000000     -1.635600000000000
