48

N      -2.964400000000000      0.310700000000000      0.238800000000000
N      -4.971000000000000     -0.970200000000000     -0.063800000000000
C       0.681900000000000      0.939600000000000      0.394800000000000
C       2.837500000000000     -0.369600000000000      0.311500000000000
C       1.779000000000000      0.261700000000000      1.213800000000000
C      -0.353300000000000      1.596000000000000      1.316300000000000
C       0.013200000000000     -0.066100000000000     -0.550100000000000
C       3.484700000000000      0.691200000000000     -0.588900000000000
C       3.898600000000000     -1.097400000000000      1.148100000000000
C      -1.486700000000000      2.247600000000000      0.523600000000000
C      -1.118000000000000      0.575700000000000     -1.354000000000000
C      -2.142100000000000      1.296300000000000     -0.477400000000000
C       4.584500000000000      0.093400000000000     -1.463500000000000
C       4.997800000000000     -1.692100000000000      0.270600000000000
C       5.632600000000000     -0.636500000000000     -0.629200000000000
C      -3.995600000000000     -0.061800000000000     -0.434700000000000
C      -6.084000000000000     -1.281800000000000     -0.949300000000000
C      -4.794600000000000     -1.836500000000000      1.093400000000000
H       1.108000000000000      1.754600000000000     -0.201300000000000
H       2.384300000000000     -1.141100000000000     -0.320800000000000
H       1.339500000000000     -0.510400000000000      1.858600000000000
H       2.246500000000000      0.996900000000000      1.881500000000000
H       0.130100000000000      2.356000000000000      1.941900000000000
H      -0.773600000000000      0.846800000000000      1.999400000000000
H      -0.380000000000000     -0.917100000000000      0.020000000000000
H       0.720500000000000     -0.466900000000000     -1.281900000000000
H       3.905800000000000      1.499300000000000      0.022500000000000
H       2.756400000000000      1.143700000000000     -1.268100000000000
H       3.430800000000000     -1.898500000000000      1.732800000000000
H       4.349400000000000     -0.401200000000000      1.866900000000000
H      -2.236600000000000      2.641200000000000      1.220300000000000
H      -1.078600000000000      3.108500000000000     -0.021500000000000
H      -0.678200000000000      1.304000000000000     -2.047900000000000
H      -1.603200000000000     -0.189200000000000     -1.971800000000000
H      -2.775800000000000      1.917600000000000     -1.126200000000000
H       5.065700000000000      0.887600000000000     -2.045500000000000
H       4.139700000000000     -0.605200000000000     -2.183100000000000
H       4.577100000000000     -2.494400000000000     -0.348000000000000
H       5.767600000000000     -2.147800000000000      0.903600000000000
H       6.367300000000000     -1.109000000000000     -1.290800000000000
H       6.177400000000000      0.088700000000000     -0.012400000000000
H      -4.207200000000000      0.353900000000000     -1.437000000000000
H      -6.959100000000000     -1.620500000000000     -0.385000000000000
H      -5.795300000000000     -2.070300000000000     -1.651400000000000
H      -6.389700000000000     -0.400200000000000     -1.522700000000000
H      -4.123900000000000     -2.664500000000000      0.842900000000000
H      -5.748000000000000     -2.255400000000000      1.431800000000000
H      -4.366700000000000     -1.282700000000000      1.935600000000000
