48

N       0.366800000000000     -1.408800000000000      0.200500000000000
N       2.223700000000000      0.164200000000000      0.176600000000000
C       1.720400000000000     -1.127700000000000     -0.308000000000000
C       1.327000000000000      1.245600000000000     -0.294900000000000
C      -0.604300000000000     -0.433000000000000     -0.299400000000000
C      -0.125700000000000      0.964900000000000      0.141400000000000
C       2.458200000000000     -2.354100000000000      0.223300000000000
C       0.102200000000000     -2.801900000000000     -0.153300000000000
C       1.782200000000000      2.607100000000000      0.252000000000000
C       1.450300000000000     -3.488600000000000      0.053600000000000
C       3.609300000000000      0.408000000000000     -0.252500000000000
C      -2.011000000000000     -0.690000000000000      0.246000000000000
C       3.228700000000000      2.899000000000000     -0.130000000000000
C       4.130200000000000      1.743000000000000      0.282300000000000
C      -3.007800000000000      0.324900000000000     -0.303300000000000
C      -4.417800000000000      0.045600000000000      0.219600000000000
C      -5.418000000000000      1.078400000000000     -0.299100000000000
C      -6.814500000000000      0.823600000000000      0.245200000000000
H       1.729700000000000     -1.154300000000000     -1.409100000000000
H       1.351600000000000      1.287400000000000     -1.394000000000000
H      -0.635400000000000     -0.467400000000000     -1.397600000000000
H      -0.212700000000000      1.064700000000000      1.232500000000000
H      -0.748800000000000      1.746600000000000     -0.305400000000000
H       2.707700000000000     -2.241500000000000      1.286600000000000
H       3.386100000000000     -2.558400000000000     -0.320700000000000
H      -0.208600000000000     -2.905000000000000     -1.200400000000000
H      -0.665000000000000     -3.251100000000000      0.484900000000000
H       1.686800000000000      2.625800000000000      1.345600000000000
H       1.137200000000000      3.403800000000000     -0.137100000000000
H       1.701500000000000     -4.108200000000000     -0.814300000000000
H       1.446900000000000     -4.131700000000000      0.940200000000000
H       3.686000000000000      0.394200000000000     -1.347600000000000
H       4.269900000000000     -0.378100000000000      0.130100000000000
H      -2.008600000000000     -0.654200000000000      1.343100000000000
H      -2.349900000000000     -1.693500000000000     -0.038300000000000
H       3.563900000000000      3.826300000000000      0.347300000000000
H       3.298500000000000      3.050500000000000     -1.214100000000000
H       5.146800000000000      1.917800000000000     -0.087800000000000
H       4.192000000000000      1.700300000000000      1.377300000000000
H      -2.744000000000000      1.341900000000000      0.001500000000000
H      -3.007500000000000      0.297300000000000     -1.399500000000000
H      -4.733700000000000     -0.958700000000000     -0.088200000000000
H      -4.412400000000000      0.060500000000000      1.316500000000000
H      -5.099300000000000      2.086100000000000     -0.008100000000000
H      -5.446900000000000      1.050900000000000     -1.394600000000000
H      -7.177500000000000     -0.165000000000000     -0.053200000000000
H      -7.513800000000000      1.572600000000000     -0.139600000000000
H      -6.825700000000000      0.878500000000000      1.338500000000000
