48

N       6.324100000000000     -0.519100000000000     -0.962800000000000
N       5.356000000000000     -1.069800000000000      0.958700000000000
C      -1.088600000000000      1.084400000000000     -0.207800000000000
C      -2.252900000000000      0.305700000000000      0.408300000000000
C       0.249700000000000      0.644000000000000      0.390000000000000
C      -3.611700000000000      0.655200000000000     -0.205400000000000
C       1.419100000000000      1.393300000000000     -0.251300000000000
C      -4.765900000000000     -0.176700000000000      0.358500000000000
C       2.754000000000000      0.977000000000000      0.370100000000000
C      -6.085900000000000      0.161800000000000     -0.340000000000000
C       3.926500000000000      1.703800000000000     -0.296100000000000
C      -7.233000000000000     -0.697000000000000      0.197600000000000
C       5.286700000000000      1.338300000000000      0.308800000000000
C      -8.582200000000000     -0.380900000000000     -0.451300000000000
C       5.644800000000000     -0.116600000000000      0.132000000000000
C      -9.720700000000001     -1.249300000000000      0.061400000000000
C       6.492600000000000     -1.868800000000000     -0.832100000000000
C       5.887300000000000     -2.185400000000000      0.361200000000000
H      -1.235800000000000      2.158100000000000     -0.040900000000000
H      -1.075700000000000      0.923800000000000     -1.292600000000000
H      -2.286600000000000      0.494700000000000      1.488400000000000
H      -2.073000000000000     -0.769100000000000      0.280800000000000
H       0.244300000000000      0.825000000000000      1.471800000000000
H       0.382400000000000     -0.434800000000000      0.243200000000000
H      -3.817000000000000      1.720400000000000     -0.042700000000000
H      -3.558700000000000      0.505600000000000     -1.291100000000000
H       1.277700000000000      2.473600000000000     -0.125700000000000
H       1.435500000000000      1.192200000000000     -1.329400000000000
H      -4.857200000000000      0.005300000000000      1.435900000000000
H      -4.544900000000000     -1.242900000000000      0.227300000000000
H       2.869700000000000     -0.107000000000000      0.261400000000000
H       2.746600000000000      1.197900000000000      1.444200000000000
H      -5.986000000000000      0.000800000000000     -1.420100000000000
H      -6.319900000000000      1.222700000000000     -0.190500000000000
H       3.782200000000000      2.786700000000000     -0.196700000000000
H       3.930800000000000      1.480100000000000     -1.370300000000000
H      -7.316200000000000     -0.553300000000000      1.282100000000000
H      -6.997100000000000     -1.756300000000000      0.036100000000000
H       6.063300000000000      1.963300000000000     -0.149200000000000
H       5.288600000000000      1.573200000000000      1.380300000000000
H      -8.832100000000001      0.672000000000000     -0.274400000000000
H      -8.501600000000000     -0.510200000000000     -1.537200000000000
H      -9.522600000000001     -2.307800000000000     -0.134300000000000
H      -9.855600000000001     -1.118600000000000      1.139800000000000
H     -10.658200000000001     -0.979900000000000     -0.435000000000000
H       6.646500000000000      0.054200000000000     -1.731700000000000
H       7.009700000000000     -2.458700000000000     -1.575100000000000
H       5.806400000000000     -3.160000000000000      0.820100000000000
