48

N       4.029800000000000     -0.264200000000000     -0.064700000000000
N      -3.333500000000000     -0.879500000000000      1.145900000000000
C       1.595200000000000     -0.570200000000000      0.337700000000000
C       0.195400000000000      0.023000000000000      0.042000000000000
C       2.692400000000000      0.265500000000000     -0.361600000000000
C       0.139600000000000      1.504900000000000      0.455100000000000
C       1.244300000000000      2.335000000000000     -0.209500000000000
C       2.625600000000000      1.733900000000000      0.077200000000000
C       1.718400000000000     -2.043800000000000     -0.085300000000000
C      -0.929700000000000     -0.740000000000000      0.747100000000000
C      -2.297700000000000     -0.156800000000000      0.397000000000000
C       3.140900000000000     -2.555000000000000      0.131500000000000
C       4.170800000000000     -1.643900000000000     -0.527100000000000
C       1.181900000000000      3.788100000000000      0.258900000000000
C      -2.552600000000000     -0.251300000000000     -1.113600000000000
C      -3.947600000000000      0.253900000000000     -1.471200000000000
C      -4.669500000000000     -0.353900000000000      0.863800000000000
C      -5.004000000000000     -0.445900000000000     -0.623100000000000
H       1.759900000000000     -0.521900000000000      1.424900000000000
H       0.065200000000000     -0.041300000000000     -1.044200000000000
H       2.539200000000000      0.233700000000000     -1.449500000000000
H       0.213800000000000      1.590800000000000      1.547100000000000
H      -0.805600000000000      1.967000000000000      0.157100000000000
H       1.080400000000000      2.324900000000000     -1.295400000000000
H       3.392900000000000      2.314100000000000     -0.451900000000000
H       2.849500000000000      1.817600000000000      1.149600000000000
H       1.447300000000000     -2.154000000000000     -1.142700000000000
H       1.038600000000000     -2.677900000000000      0.492400000000000
H      -0.915600000000000     -1.797400000000000      0.459300000000000
H      -0.771600000000000     -0.707300000000000      1.833400000000000
H      -2.366700000000000      0.886000000000000      0.720300000000000
H       4.189400000000000     -0.229800000000000      0.942400000000000
H       3.343100000000000     -2.621300000000000      1.208300000000000
H       3.233000000000000     -3.569600000000000     -0.272200000000000
H       5.179400000000000     -1.997900000000000     -0.287400000000000
H       4.075400000000000     -1.684300000000000     -1.618900000000000
H       1.951300000000000      4.389000000000000     -0.237200000000000
H       0.208500000000000      4.231200000000000      0.023500000000000
H       1.336800000000000      3.865600000000000      1.340300000000000
H      -2.442900000000000     -1.288700000000000     -1.455600000000000
H      -1.842300000000000      0.355500000000000     -1.682800000000000
H      -3.147500000000000     -0.805700000000000      2.145900000000000
H      -4.147900000000000      0.085000000000000     -2.535000000000000
H      -4.000100000000000      1.336400000000000     -1.301000000000000
H      -4.747600000000000      0.684900000000000      1.207500000000000
H      -5.404500000000000     -0.934100000000000      1.432200000000000
H      -5.986200000000000      0.002000000000000     -0.811100000000000
H      -5.070500000000000     -1.500100000000000     -0.920400000000000
