49

O      -6.496200000000000      0.301500000000000     -0.794700000000000
O      -5.801700000000000      0.477500000000000      1.369300000000000
C       0.165200000000000     -0.278900000000000     -0.312100000000000
C      -1.278000000000000     -0.089700000000000      0.150900000000000
C       1.019900000000000      0.937000000000000      0.067800000000000
C       0.757800000000000     -1.566000000000000      0.275300000000000
C       3.072600000000000     -0.537100000000000      0.248200000000000
C      -1.884200000000000      1.177300000000000     -0.468900000000000
C      -2.123000000000000     -1.324900000000000     -0.190600000000000
C       2.480500000000000      0.750100000000000     -0.339600000000000
C       2.218200000000000     -1.752700000000000     -0.132300000000000
C      -3.345200000000000      1.359800000000000     -0.061300000000000
C      -3.583900000000000     -1.138000000000000      0.215200000000000
C      -4.171300000000000      0.125300000000000     -0.402800000000000
C       4.516200000000000     -0.726600000000000     -0.213500000000000
C       5.403700000000000      0.420500000000000      0.261000000000000
C      -5.556700000000000      0.322600000000000      0.182300000000000
C       6.853400000000000      0.210800000000000     -0.175600000000000
C       7.752500000000000      1.331700000000000      0.321200000000000
H       0.178000000000000     -0.372100000000000     -1.407500000000000
H      -1.287800000000000      0.031600000000000      1.243700000000000
H       0.963100000000000      1.117600000000000      1.148700000000000
H       0.669300000000000      1.844500000000000     -0.432800000000000
H       0.224200000000000     -2.452400000000000     -0.080600000000000
H       0.682900000000000     -1.554500000000000      1.369900000000000
H       3.065400000000000     -0.450700000000000      1.343600000000000
H      -1.814000000000000      1.134900000000000     -1.563100000000000
H      -1.353500000000000      2.076800000000000     -0.143000000000000
H      -1.767700000000000     -2.213900000000000      0.339000000000000
H      -2.067300000000000     -1.538100000000000     -1.265500000000000
H       3.024100000000000      1.633900000000000      0.007800000000000
H       2.554200000000000      0.733900000000000     -1.434400000000000
H       2.272300000000000     -1.923000000000000     -1.215300000000000
H       2.614700000000000     -2.654000000000000      0.350600000000000
H      -3.391200000000000      1.572600000000000      1.015100000000000
H      -3.760100000000000      2.240800000000000     -0.566500000000000
H      -4.166500000000000     -2.014100000000000     -0.095800000000000
H      -3.647500000000000     -1.100100000000000      1.310900000000000
H      -4.236700000000000      0.011000000000000     -1.491800000000000
H       4.558600000000000     -0.801300000000000     -1.307400000000000
H       4.905100000000000     -1.672300000000000      0.184500000000000
H       5.071700000000000      1.376200000000000     -0.155500000000000
H       5.354800000000000      0.502100000000000      1.353500000000000
H       6.910400000000000      0.160400000000000     -1.269200000000000
H       7.225500000000000     -0.744400000000000      0.213100000000000
H       7.743100000000000      1.387100000000000      1.414400000000000
H       7.428900000000000      2.299400000000000     -0.075100000000000
H       8.784400000000000      1.160700000000000     -0.001300000000000
H      -7.400500000000000      0.426600000000000     -0.435900000000000
