49

O      -4.539800000000000     -0.835100000000000      0.591500000000000
O      -4.173800000000000     -0.092400000000000     -1.563400000000000
C       2.983000000000000      2.353300000000000      0.016400000000000
C       3.077200000000000      1.014800000000000     -0.749500000000000
C       3.336200000000000     -0.221200000000000      0.120200000000000
C       3.488400000000000     -1.478200000000000     -0.744400000000000
C       3.679200000000000     -2.767100000000000      0.076900000000000
C       1.739200000000000      2.478900000000000      0.919900000000000
C       4.248700000000000      2.619000000000000      0.837800000000000
C       3.760400000000000     -3.973300000000000     -0.862000000000000
C       4.925800000000000     -2.717300000000000      0.961500000000000
C       0.444800000000000      2.329200000000000      0.167800000000000
C      -0.456700000000000      1.368900000000000      0.430300000000000
C      -1.733100000000000      1.147700000000000     -0.255000000000000
C      -2.099200000000000      2.105500000000000     -1.359300000000000
C      -2.502800000000000      0.121800000000000      0.160500000000000
C      -3.819400000000000     -0.255700000000000     -0.407800000000000
C      -5.845400000000000     -1.292100000000000      0.223400000000000
C      -6.512700000000000     -1.906600000000000      1.435300000000000
H       2.921200000000000      3.144300000000000     -0.744500000000000
H       3.896600000000000      1.101600000000000     -1.475900000000000
H       2.170000000000000      0.859800000000000     -1.345500000000000
H       2.511900000000000     -0.361200000000000      0.828000000000000
H       4.250800000000000     -0.072300000000000      0.700800000000000
H       2.595000000000000     -1.587100000000000     -1.372600000000000
H       4.338500000000000     -1.347200000000000     -1.426300000000000
H       2.804400000000000     -2.902600000000000      0.725300000000000
H       1.736200000000000      3.470000000000000      1.391500000000000
H       1.798500000000000      1.752100000000000      1.739400000000000
H       4.323500000000000      1.953300000000000      1.703300000000000
H       5.147600000000000      2.494000000000000      0.225200000000000
H       4.247100000000000      3.647100000000000      1.216400000000000
H       4.624800000000000     -3.899600000000000     -1.530700000000000
H       2.858900000000000     -4.047100000000000     -1.479400000000000
H       3.850500000000000     -4.904700000000000     -0.292900000000000
H       5.821100000000000     -2.487100000000000      0.374100000000000
H       4.828100000000000     -1.963700000000000      1.748700000000000
H       5.087300000000000     -3.680000000000000      1.458800000000000
H       0.272000000000000      3.057200000000000     -0.619700000000000
H      -0.222800000000000      0.668800000000000      1.231800000000000
H      -1.424300000000000      1.980900000000000     -2.213100000000000
H      -2.034900000000000      3.142200000000000     -1.009300000000000
H      -3.119700000000000      1.986200000000000     -1.726700000000000
H      -2.176600000000000     -0.499200000000000      0.993500000000000
H      -5.759400000000000     -2.041000000000000     -0.571700000000000
H      -6.440200000000000     -0.445400000000000     -0.137400000000000
H      -5.919700000000000     -2.743700000000000      1.818500000000000
H      -6.589600000000000     -1.174300000000000      2.245700000000000
H      -7.515200000000000     -2.267400000000000      1.188900000000000
