49

O      -2.149200000000000     -1.234500000000000      1.633000000000000
O      -5.159100000000000      1.451000000000000      0.310100000000000
C       1.357900000000000     -0.752400000000000     -1.202800000000000
C       1.848700000000000     -0.706300000000000      0.263700000000000
C       0.031600000000000      0.086700000000000     -1.210400000000000
C       0.489700000000000     -1.198000000000000      0.805300000000000
C      -0.516200000000000     -0.172400000000000      0.237300000000000
C       2.528100000000000      0.569300000000000      0.831600000000000
C       1.035800000000000     -2.264300000000000     -1.293500000000000
C       0.372500000000000     -2.551900000000000      0.063300000000000
C       0.284700000000000      1.597900000000000     -1.453300000000000
C       1.892400000000000      1.941100000000000      0.514800000000000
C      -1.982700000000000     -0.569600000000000      0.385100000000000
C      -0.949300000000000     -0.348200000000000     -2.322600000000000
C       1.587800000000000      2.205200000000000     -0.949700000000000
C       3.989500000000000      0.581100000000000      0.303300000000000
C       2.613200000000000      0.446400000000000      2.371200000000000
C      -2.901000000000000      0.649600000000000      0.310000000000000
C      -4.374500000000000      0.269400000000000      0.403700000000000
H       2.088600000000000     -0.447900000000000     -1.955500000000000
H       2.584500000000000     -1.511000000000000      0.428900000000000
H       0.442500000000000     -1.315500000000000      1.890300000000000
H      -0.398000000000000      0.723800000000000      0.850900000000000
H       1.964400000000000     -2.843000000000000     -1.380700000000000
H       0.414100000000000     -2.550600000000000     -2.143800000000000
H      -0.656700000000000     -2.901700000000000     -0.048400000000000
H       0.930800000000000     -3.332700000000000      0.593000000000000
H      -0.553800000000000      2.173800000000000     -1.039900000000000
H       0.262900000000000      1.798400000000000     -2.533800000000000
H       2.595600000000000      2.721500000000000      0.841600000000000
H       1.001600000000000      2.125400000000000      1.123600000000000
H      -2.290300000000000     -1.299800000000000     -0.365300000000000
H      -1.331600000000000     -1.364500000000000     -2.204200000000000
H      -1.814200000000000      0.318700000000000     -2.390700000000000
H      -0.448200000000000     -0.315800000000000     -3.298000000000000
H       2.418800000000000      1.892100000000000     -1.589600000000000
H       1.513200000000000      3.292000000000000     -1.089900000000000
H       4.540500000000000     -0.304600000000000      0.641400000000000
H       4.029900000000000      0.589400000000000     -0.790100000000000
H       4.538800000000000      1.458000000000000      0.665200000000000
H       3.073800000000000     -0.501800000000000      2.671000000000000
H       3.215100000000000      1.255700000000000      2.800900000000000
H       1.621000000000000      0.498300000000000      2.832100000000000
H      -2.679500000000000      1.340100000000000      1.134700000000000
H      -2.741000000000000      1.221700000000000     -0.608900000000000
H      -1.942500000000000     -0.599500000000000      2.340100000000000
H      -4.656200000000000     -0.399700000000000     -0.415600000000000
H      -4.599300000000000     -0.218700000000000      1.357000000000000
H      -6.091000000000000      1.179700000000000      0.368600000000000
