49

O       9.412000000000001      1.547600000000000     -0.892400000000000
O       8.873200000000001      0.875100000000000      1.213100000000000
C      -3.505800000000000     -0.145800000000000      0.433800000000000
C      -4.850400000000000     -0.453100000000000     -0.233700000000000
C      -2.324300000000000     -0.862200000000000     -0.224700000000000
C      -6.024600000000000      0.317700000000000      0.373900000000000
C      -0.971200000000000     -0.499600000000000      0.396800000000000
C      -7.326000000000000      0.028400000000000     -0.379800000000000
C       0.255900000000000     -1.165200000000000     -0.235100000000000
C      -8.506399999999999      0.774200000000000      0.246800000000000
C       1.612000000000000     -0.749400000000000      0.343700000000000
C      -9.839200000000000      0.494800000000000     -0.450900000000000
C       2.794500000000000     -1.483500000000000     -0.292700000000000
C     -11.003100000000000      1.288100000000000      0.122900000000000
C       4.096700000000000     -1.032300000000000      0.305900000000000
C       5.078800000000000     -0.454600000000000     -0.402200000000000
C       6.331200000000000     -0.026900000000000      0.182600000000000
C       7.304300000000000      0.549400000000000     -0.537300000000000
C       8.592300000000000      0.997200000000000      0.029500000000000
H      -3.555600000000000     -0.425600000000000      1.493100000000000
H      -3.330700000000000      0.936700000000000      0.400200000000000
H      -5.047500000000000     -1.530100000000000     -0.165600000000000
H      -4.778400000000000     -0.212000000000000     -1.301800000000000
H      -2.473300000000000     -1.946600000000000     -0.155200000000000
H      -2.301200000000000     -0.613600000000000     -1.292800000000000
H      -5.814100000000000      1.393500000000000      0.341500000000000
H      -6.135000000000000      0.040500000000000      1.429100000000000
H      -0.993900000000000     -0.751400000000000      1.464600000000000
H      -0.841500000000000      0.588700000000000      0.339800000000000
H      -7.220100000000000      0.325400000000000     -1.430100000000000
H      -7.527400000000000     -1.049500000000000     -0.366400000000000
H       0.254700000000000     -0.949800000000000     -1.311100000000000
H       0.147900000000000     -2.252900000000000     -0.138200000000000
H      -8.593100000000000      0.496800000000000      1.304700000000000
H      -8.305500000000000      1.852400000000000      0.218200000000000
H       1.736300000000000      0.333100000000000      0.211200000000000
H       1.606000000000000     -0.933800000000000      1.425800000000000
H      -9.746400000000000      0.730200000000000     -1.517900000000000
H     -10.068300000000001     -0.575200000000000     -0.380700000000000
H       2.690800000000000     -2.562700000000000     -0.129800000000000
H       2.785900000000000     -1.322300000000000     -1.377500000000000
H     -11.150000000000000      1.053600000000000      1.181900000000000
H     -11.927500000000000      1.048100000000000     -0.411500000000000
H     -10.825100000000001      2.364100000000000      0.030800000000000
H       4.226800000000000     -1.205700000000000      1.372000000000000
H       4.943600000000000     -0.289600000000000     -1.468300000000000
H       6.464800000000000     -0.189600000000000      1.248800000000000
H       7.174100000000000      0.713700000000000     -1.604200000000000
H      10.262800000000000      1.839700000000000     -0.501200000000000
