49

O       0.078400000000000     -0.560500000000000      0.834600000000000
O       0.431000000000000      0.427000000000000     -1.297400000000000
C       2.342100000000000      0.097700000000000      0.190200000000000
C      -1.771700000000000     -0.174100000000000     -0.616200000000000
C       3.804100000000000     -0.363400000000000      0.218100000000000
C      -0.299800000000000     -0.543200000000000     -0.543700000000000
C       1.461100000000000     -0.888500000000000      0.979700000000000
C       1.831900000000000      0.150300000000000     -1.262300000000000
C      -2.668800000000000     -1.219800000000000      0.095600000000000
C      -1.990100000000000      1.217800000000000     -0.007500000000000
C       2.240600000000000      1.499200000000000      0.822700000000000
C      -3.448400000000000      1.659600000000000     -0.137900000000000
C       4.669600000000000      0.602900000000000     -0.607600000000000
C      -4.065900000000000     -0.704400000000000      0.356100000000000
C       4.278300000000000     -0.481300000000000      1.666300000000000
C      -4.432100000000000      0.583100000000000      0.235900000000000
C      -2.747700000000000     -2.522600000000000     -0.708500000000000
C       6.131900000000000      0.188900000000000     -0.689200000000000
C      -5.844500000000000      1.031500000000000      0.471000000000000
H      -2.058700000000000     -0.113100000000000     -1.676300000000000
H       3.875200000000000     -1.360700000000000     -0.237500000000000
H      -0.130900000000000     -1.532000000000000     -0.986400000000000
H       1.614300000000000     -1.923700000000000      0.650600000000000
H       1.653800000000000     -0.848600000000000      2.054900000000000
H       2.298700000000000      0.954000000000000     -1.837900000000000
H       2.019000000000000     -0.791700000000000     -1.792600000000000
H      -2.247600000000000     -1.464400000000000      1.079500000000000
H      -1.357300000000000      1.969900000000000     -0.493100000000000
H      -1.716800000000000      1.217100000000000      1.056100000000000
H       2.767000000000000      2.270500000000000      0.254300000000000
H       1.194300000000000      1.829600000000000      0.851300000000000
H       2.582200000000000      1.532600000000000      1.860500000000000
H      -3.646700000000000      1.970100000000000     -1.171200000000000
H      -3.599900000000000      2.540400000000000      0.497600000000000
H       4.657300000000000      1.616600000000000     -0.197300000000000
H       4.318600000000000      0.661500000000000     -1.641300000000000
H      -4.807800000000000     -1.437400000000000      0.665900000000000
H       4.367800000000000      0.484100000000000      2.171400000000000
H       5.280400000000000     -0.926000000000000      1.688300000000000
H       3.668000000000000     -1.149800000000000      2.276800000000000
H      -3.133600000000000     -2.345300000000000     -1.718700000000000
H      -1.767300000000000     -2.999600000000000     -0.798200000000000
H      -3.410700000000000     -3.247000000000000     -0.221200000000000
H       6.669700000000000      0.843800000000000     -1.382900000000000
H       6.230800000000000     -0.839400000000000     -1.051200000000000
H       6.628300000000000      0.265900000000000      0.282600000000000
H      -6.507300000000000      0.196600000000000      0.721800000000000
H      -6.242600000000000      1.514500000000000     -0.427200000000000
H      -5.883200000000000      1.748000000000000      1.297800000000000
