49

O       2.368000000000000     -1.301100000000000      1.224100000000000
O       5.051100000000000      1.800300000000000      0.271900000000000
C      -1.462100000000000     -0.988700000000000     -0.948600000000000
C      -1.509200000000000      0.557100000000000     -0.906100000000000
C      -0.439200000000000     -1.391700000000000      0.171500000000000
C       0.024800000000000      0.674900000000000     -1.027500000000000
C       0.545200000000000     -0.169500000000000      0.156800000000000
C      -2.287300000000000      1.295000000000000      0.217000000000000
C      -0.821400000000000     -1.164100000000000     -2.347400000000000
C       0.251100000000000     -0.062800000000000     -2.369800000000000
C      -1.111100000000000     -1.555300000000000      1.560300000000000
C      -2.122600000000000      0.798600000000000      1.670600000000000
C       2.043400000000000     -0.460000000000000      0.122200000000000
C       0.258100000000000     -2.742200000000000     -0.107800000000000
C      -2.323000000000000     -0.691600000000000      1.886000000000000
C      -3.795700000000000      1.222200000000000     -0.149700000000000
C      -1.896300000000000      2.791500000000000      0.195000000000000
C       2.862800000000000      0.828600000000000      0.181400000000000
C       4.363200000000000      0.558600000000000      0.200200000000000
H      -2.428600000000000     -1.493200000000000     -0.879500000000000
H      -1.948300000000000      0.935600000000000     -1.844300000000000
H       0.402300000000000      1.699000000000000     -1.048300000000000
H       0.392500000000000      0.410900000000000      1.070000000000000
H      -1.564800000000000     -0.975200000000000     -3.132100000000000
H      -0.412800000000000     -2.158500000000000     -2.538300000000000
H       1.257800000000000     -0.464500000000000     -2.498100000000000
H       0.065100000000000      0.614100000000000     -3.212400000000000
H      -0.353900000000000     -1.414300000000000      2.343500000000000
H      -1.449900000000000     -2.594800000000000      1.675100000000000
H      -2.871000000000000      1.315300000000000      2.289600000000000
H      -1.167900000000000      1.116900000000000      2.101200000000000
H       2.333000000000000     -1.010300000000000     -0.776000000000000
H       0.954000000000000     -2.708900000000000     -0.949800000000000
H       0.811700000000000     -3.109000000000000      0.762900000000000
H      -0.491000000000000     -3.508400000000000     -0.343300000000000
H      -3.199800000000000     -1.055900000000000      1.341500000000000
H      -2.558300000000000     -0.852400000000000      2.946600000000000
H      -3.994100000000000      1.711900000000000     -1.110600000000000
H      -4.147500000000000      0.189500000000000     -0.234200000000000
H      -4.414800000000000      1.726600000000000      0.601100000000000
H      -2.006400000000000      3.218000000000000     -0.808500000000000
H      -2.528700000000000      3.376400000000000      0.873100000000000
H      -0.857700000000000      2.938200000000000      0.510300000000000
H       2.636900000000000      1.481200000000000     -0.669300000000000
H       2.608000000000000      1.400300000000000      1.083500000000000
H       2.166000000000000     -0.814900000000000      2.041600000000000
H       4.650100000000000     -0.040600000000000      1.069700000000000
H       4.676400000000000      0.038500000000000     -0.710700000000000
H       6.002500000000000      1.599300000000000      0.277800000000000
