49

O       0.212100000000000     -2.952100000000000     -0.759400000000000
O      -0.388000000000000     -2.486200000000000      1.385400000000000
C       1.581700000000000      1.113000000000000      0.249900000000000
C       3.030300000000000      1.390500000000000     -0.155300000000000
C       0.669800000000000      2.291100000000000     -0.103600000000000
C       3.993000000000000      0.256400000000000      0.210400000000000
C      -0.769500000000000      2.020800000000000      0.338700000000000
C       5.444800000000000      0.438800000000000     -0.245200000000000
C      -1.747800000000000      3.155600000000000      0.005700000000000
C       6.343500000000000     -0.751400000000000      0.091200000000000
C      -3.194200000000000      2.942100000000000      0.460800000000000
C       7.769100000000000     -0.524300000000000     -0.388700000000000
C      -4.503500000000000     -1.734500000000000      0.068900000000000
C      -3.083000000000000     -1.930600000000000      0.623000000000000
C      -4.661100000000000     -0.638700000000000     -0.989000000000000
C      -3.777200000000000      1.712000000000000     -0.088800000000000
C      -2.037500000000000     -2.363800000000000     -0.403600000000000
C      -4.203400000000000      0.669600000000000     -0.505400000000000
C      -0.679300000000000     -2.608400000000000      0.205100000000000
H       1.226900000000000      0.205800000000000     -0.254000000000000
H       1.535800000000000      0.922300000000000      1.328900000000000
H       3.374800000000000      2.315000000000000      0.324200000000000
H       3.074500000000000      1.560400000000000     -1.238100000000000
H       0.695400000000000      2.466900000000000     -1.185600000000000
H       1.035900000000000      3.203100000000000      0.382900000000000
H       3.979500000000000      0.119800000000000      1.299200000000000
H       3.609300000000000     -0.676800000000000     -0.221800000000000
H      -1.109300000000000      1.092300000000000     -0.135400000000000
H      -0.787500000000000      1.846400000000000      1.421800000000000
H       5.850900000000000      1.346400000000000      0.218100000000000
H       5.457500000000000      0.605100000000000     -1.329600000000000
H      -1.737700000000000      3.313100000000000     -1.081000000000000
H      -1.379200000000000      4.085500000000000      0.456400000000000
H       6.348300000000000     -0.917500000000000      1.174500000000000
H       5.946100000000000     -1.660200000000000     -0.375200000000000
H      -3.797600000000000      3.804700000000000      0.155900000000000
H      -3.226100000000000      2.902600000000000      1.555900000000000
H       8.205600000000000      0.361500000000000      0.083700000000000
H       8.395000000000000     -1.386400000000000     -0.137700000000000
H       7.800400000000000     -0.386100000000000     -1.474200000000000
H      -5.166300000000000     -1.508300000000000      0.914500000000000
H      -4.854700000000000     -2.683600000000000     -0.354400000000000
H      -2.746300000000000     -1.015900000000000      1.126300000000000
H      -3.135600000000000     -2.693900000000000      1.410900000000000
H      -4.108300000000000     -0.912500000000000     -1.894500000000000
H      -5.717000000000000     -0.572600000000000     -1.276400000000000
H      -1.923200000000000     -1.585200000000000     -1.165400000000000
H      -2.363700000000000     -3.290200000000000     -0.889000000000000
H       1.110400000000000     -3.096300000000000     -0.392300000000000
