49

O      -8.634900000000000     -2.125500000000000     -0.116800000000000
O      -9.878000000000000     -0.226600000000000      0.172800000000000
C       2.357600000000000      0.613300000000000     -0.111200000000000
C       3.592900000000000     -0.292500000000000     -0.109000000000000
C       1.004000000000000     -0.105400000000000     -0.092500000000000
C       4.914200000000000      0.478200000000000     -0.071800000000000
C      -0.188800000000000      0.851800000000000     -0.032900000000000
C       6.111800000000000     -0.474600000000000     -0.079900000000000
C      -1.541400000000000      0.133000000000000     -0.006600000000000
C       7.433900000000000      0.292600000000000     -0.005300000000000
C      -2.736400000000000      1.089100000000000     -0.023500000000000
C       8.628500000000001     -0.663300000000000      0.018900000000000
C      -4.060500000000000      0.322300000000000      0.016200000000000
C       9.976200000000000      0.053500000000000      0.124000000000000
C      -5.255400000000000      1.275500000000000      0.032700000000000
C      11.165300000000000     -0.893400000000000      0.173600000000000
C      -6.523600000000000      0.534100000000000      0.034400000000000
C      -7.561500000000000     -0.070000000000000      0.036700000000000
C      -8.803900000000001     -0.792100000000000      0.040300000000000
H       2.399000000000000      1.263600000000000     -0.994300000000000
H       2.411500000000000      1.275700000000000      0.762300000000000
H       3.540700000000000     -0.961500000000000      0.758900000000000
H       3.566800000000000     -0.929800000000000     -1.001400000000000
H       0.968600000000000     -0.777600000000000      0.773500000000000
H       0.921700000000000     -0.735600000000000     -0.986400000000000
H       4.971700000000000      1.150400000000000     -0.936200000000000
H       4.945800000000000      1.104200000000000      0.828100000000000
H      -0.102000000000000      1.485700000000000      0.858000000000000
H      -0.153600000000000      1.520300000000000     -0.902100000000000
H       6.038600000000000     -1.161600000000000      0.772000000000000
H       6.090900000000000     -1.085300000000000     -0.990700000000000
H      -1.592300000000000     -0.499000000000000      0.888600000000000
H      -1.607000000000000     -0.538100000000000     -0.872200000000000
H       7.520100000000000      0.966500000000000     -0.866100000000000
H       7.447600000000000      0.916100000000000      0.896900000000000
H      -2.696300000000000      1.711200000000000     -0.925700000000000
H      -2.674900000000000      1.764000000000000      0.838700000000000
H       8.619100000000000     -1.278600000000000     -0.889400000000000
H       8.523800000000000     -1.350800000000000      0.867600000000000
H      -4.088700000000000     -0.320900000000000      0.905200000000000
H      -4.125500000000000     -0.341800000000000     -0.855500000000000
H       9.985500000000000      0.678500000000000      1.025000000000000
H      10.095700000000001      0.728300000000000     -0.731800000000000
H      -5.218900000000000      1.932300000000000     -0.844300000000000
H      -5.205300000000000      1.919100000000000      0.918800000000000
H      11.210400000000000     -1.510400000000000     -0.729400000000000
H      11.098900000000000     -1.558000000000000      1.040800000000000
H      12.099399999999999     -0.327800000000000      0.247600000000000
H      -9.489500000000000     -2.607200000000000     -0.113100000000000
