49

O      -0.496200000000000      2.518300000000000      0.554400000000000
O      -0.010600000000000      1.087000000000000     -1.188000000000000
C       3.997800000000000      0.575400000000000      0.472200000000000
C       4.962800000000000     -0.323300000000000     -0.303700000000000
C       2.644500000000000      0.680200000000000     -0.237700000000000
C       6.304300000000000     -0.452100000000000      0.417600000000000
C       1.648900000000000      1.550400000000000      0.529200000000000
C       7.277500000000000     -1.317900000000000     -0.366500000000000
C      -4.444000000000000     -0.139200000000000      0.581300000000000
C       0.302800000000000      1.658200000000000     -0.152800000000000
C      -3.487200000000000      0.835800000000000     -0.072400000000000
C      -4.100700000000000     -1.611500000000000      0.319700000000000
C      -1.791800000000000      2.746100000000000      0.016100000000000
C      -2.731100000000000      1.733400000000000      0.589500000000000
C      -2.730300000000000     -1.982400000000000      0.815200000000000
C      -3.441500000000000      0.776400000000000     -1.578000000000000
C      -1.723800000000000     -2.553000000000000      0.126600000000000
C      -1.766300000000000     -2.923300000000000     -1.328700000000000
C      -0.415200000000000     -2.858300000000000      0.806000000000000
H       4.432400000000000      1.576100000000000      0.583400000000000
H       3.850300000000000      0.171800000000000      1.481300000000000
H       4.518800000000000     -1.318100000000000     -0.431100000000000
H       5.121700000000000      0.090500000000000     -1.307000000000000
H       2.788800000000000      1.091800000000000     -1.244700000000000
H       2.221600000000000     -0.323800000000000     -0.369800000000000
H       6.152400000000000     -0.889200000000000      1.411300000000000
H       6.745400000000000      0.540700000000000      0.563700000000000
H       1.486200000000000      1.129100000000000      1.527800000000000
H       2.058000000000000      2.561800000000000      0.634100000000000
H       7.476900000000000     -0.889100000000000     -1.353700000000000
H       6.880000000000000     -2.328500000000000     -0.504400000000000
H       8.229500000000000     -1.397300000000000      0.167900000000000
H      -4.470200000000000      0.035200000000000      1.665100000000000
H      -5.460100000000000      0.062900000000000      0.219800000000000
H      -4.239200000000000     -1.834600000000000     -0.741000000000000
H      -4.829400000000000     -2.233800000000000      0.854400000000000
H      -1.757700000000000      2.788300000000000     -1.075100000000000
H      -2.108600000000000      3.740900000000000      0.348300000000000
H      -2.806900000000000      1.747500000000000      1.676100000000000
H      -2.567100000000000     -1.771000000000000      1.871700000000000
H      -2.679400000000000      0.065500000000000     -1.910700000000000
H      -3.253700000000000      1.745500000000000     -2.046300000000000
H      -4.407700000000000      0.444300000000000     -1.975200000000000
H      -0.995300000000000     -2.371600000000000     -1.877100000000000
H      -1.571600000000000     -3.994600000000000     -1.447900000000000
H      -2.721300000000000     -2.713700000000000     -1.812700000000000
H      -0.202400000000000     -3.931100000000000      0.754400000000000
H       0.400900000000000     -2.317200000000000      0.315600000000000
H      -0.415100000000000     -2.570200000000000      1.862500000000000
