50

O       0.549900000000000     -1.246800000000000     -0.285200000000000
N       3.861000000000000      0.307200000000000      0.108000000000000
C      -2.514000000000000      1.144900000000000      0.662700000000000
C      -3.824000000000000      1.126300000000000     -0.189300000000000
C      -2.772600000000000     -0.392500000000000      0.820700000000000
C      -4.287700000000000      0.007000000000000      0.798000000000000
C      -3.602400000000000      0.611000000000000     -1.622400000000000
C      -2.369100000000000     -1.167200000000000     -0.401200000000000
C      -1.238500000000000      1.571300000000000     -0.035900000000000
C      -2.621900000000000      1.932200000000000      1.960300000000000
C      -2.784700000000000     -0.658600000000000     -1.576400000000000
C      -1.559200000000000     -2.408600000000000     -0.243500000000000
C      -0.238600000000000     -2.154800000000000      0.473100000000000
C       1.793800000000000     -0.981500000000000      0.348500000000000
C       2.582800000000000     -0.007900000000000     -0.512400000000000
C       4.604000000000000      1.277400000000000     -0.700000000000000
C       4.658000000000000     -0.907100000000000      0.298800000000000
C       3.797300000000000      2.547300000000000     -0.912200000000000
C       5.965700000000000     -0.599600000000000      1.008500000000000
H      -4.423500000000000      2.042000000000000     -0.163800000000000
H      -2.447200000000000     -0.842800000000000      1.762800000000000
H      -4.724900000000000      0.332900000000000      1.746300000000000
H      -4.976800000000000     -0.737400000000000      0.381800000000000
H      -4.568100000000000      0.401800000000000     -2.095800000000000
H      -3.092000000000000      1.366300000000000     -2.229400000000000
H      -1.026300000000000      1.076200000000000     -0.984700000000000
H      -1.261600000000000      2.645900000000000     -0.253700000000000
H      -0.369100000000000      1.392300000000000      0.607500000000000
H      -3.508000000000000      1.715700000000000      2.561200000000000
H      -1.756200000000000      1.735300000000000      2.604000000000000
H      -2.641100000000000      3.009700000000000      1.757800000000000
H      -2.542000000000000     -1.146800000000000     -2.514500000000000
H      -1.350100000000000     -2.842800000000000     -1.229300000000000
H      -2.141200000000000     -3.149400000000000      0.317000000000000
H       0.298400000000000     -3.106400000000000      0.567700000000000
H      -0.399200000000000     -1.757800000000000      1.481600000000000
H       1.616200000000000     -0.557900000000000      1.344600000000000
H       2.295700000000000     -1.946700000000000      0.451400000000000
H       1.948700000000000      0.878800000000000     -0.620000000000000
H       2.706300000000000     -0.421500000000000     -1.522400000000000
H       5.517100000000000      1.590300000000000     -0.183300000000000
H       4.897500000000000      0.861500000000000     -1.672000000000000
H       4.154400000000000     -1.614000000000000      0.963000000000000
H       4.857900000000000     -1.422500000000000     -0.648900000000000
H       2.998200000000000      2.418200000000000     -1.648700000000000
H       3.365600000000000      2.917600000000000      0.024000000000000
H       4.452200000000000      3.335200000000000     -1.301500000000000
H       6.429500000000000     -1.533900000000000      1.345200000000000
H       5.810300000000000      0.024500000000000      1.895200000000000
H       6.693300000000000     -0.111900000000000      0.352600000000000
