50

O      -4.700500000000000     -1.304400000000000      1.001600000000000
N      -1.372100000000000      0.088500000000000      0.262700000000000
C       1.551900000000000     -0.015800000000000      0.447700000000000
C       2.918600000000000      0.025800000000000     -0.230100000000000
C       0.717700000000000     -1.194100000000000     -0.066200000000000
C       0.787900000000000      1.294300000000000      0.227700000000000
C      -2.735200000000000      0.063500000000000      0.798800000000000
C      -0.689600000000000     -1.183600000000000      0.534200000000000
C      -0.621500000000000      1.222300000000000      0.818900000000000
C       3.757600000000000      1.190500000000000      0.312600000000000
C       3.654400000000000     -1.308800000000000     -0.048500000000000
C      -3.514800000000000     -1.129700000000000      0.221900000000000
C      -3.462800000000000      1.390200000000000      0.521700000000000
C       5.150500000000000      1.221200000000000     -0.312300000000000
C       5.047600000000000     -1.273900000000000     -0.672700000000000
C       5.875300000000000     -0.109600000000000     -0.137400000000000
C      -3.901600000000000     -0.937500000000000     -1.248400000000000
C      -3.834500000000000      1.574800000000000     -0.949400000000000
C      -4.628700000000000      0.386400000000000     -1.482900000000000
H       1.692900000000000     -0.148800000000000      1.529900000000000
H       2.776200000000000      0.186300000000000     -1.308500000000000
H       1.172500000000000     -2.151400000000000      0.208800000000000
H       0.651500000000000     -1.164200000000000     -1.161800000000000
H       0.725600000000000      1.522300000000000     -0.844400000000000
H       1.296100000000000      2.135100000000000      0.710600000000000
H      -2.691400000000000     -0.048700000000000      1.892200000000000
H      -1.172300000000000     -2.035600000000000      0.053200000000000
H      -0.638200000000000     -1.385800000000000      1.612000000000000
H      -0.564200000000000      1.162400000000000      1.913600000000000
H      -1.068000000000000      2.184200000000000      0.557800000000000
H       3.289900000000000      2.155200000000000      0.093200000000000
H       3.850300000000000      1.113800000000000      1.403300000000000
H       3.739100000000000     -1.552800000000000      1.018000000000000
H       3.116300000000000     -2.130800000000000     -0.530500000000000
H      -3.017400000000000     -2.092800000000000      0.328100000000000
H      -2.959900000000000      2.278600000000000      0.909800000000000
H      -4.404300000000000      1.368000000000000      1.090400000000000
H       5.741200000000000      2.024400000000000      0.142700000000000
H       5.066300000000000      1.452800000000000     -1.381300000000000
H       4.957600000000000     -1.186400000000000     -1.762600000000000
H       5.566300000000000     -2.217800000000000     -0.470100000000000
H       6.840800000000000     -0.074800000000000     -0.654400000000000
H       6.087800000000000     -0.272100000000000      0.926500000000000
H      -4.560400000000000     -1.754100000000000     -1.567000000000000
H      -3.004000000000000     -0.976600000000000     -1.876700000000000
H      -2.925600000000000      1.709900000000000     -1.547600000000000
H      -4.428200000000000      2.488900000000000     -1.064500000000000
H      -5.611400000000000      0.357300000000000     -0.996300000000000
H      -4.812200000000000      0.518800000000000     -2.555300000000000
H      -4.428200000000000     -1.487200000000000      1.917100000000000
