50

O       0.435100000000000     -1.524600000000000      0.168500000000000
N       3.908200000000000     -0.314400000000000      0.092700000000000
C      -2.307400000000000      1.421800000000000      0.253400000000000
C      -3.614100000000000      1.240400000000000     -0.637300000000000
C      -2.762600000000000      0.018300000000000      0.858800000000000
C      -4.232900000000000      0.514900000000000      0.603500000000000
C      -3.484900000000000      0.247500000000000     -1.812300000000000
C      -2.457400000000000     -1.158600000000000     -0.032600000000000
C      -0.976500000000000      1.389300000000000     -0.524300000000000
C      -2.257600000000000      2.632500000000000      1.194700000000000
C      -2.833100000000000     -1.028000000000000     -1.320400000000000
C      -1.792000000000000     -2.358200000000000      0.549500000000000
C      -0.438900000000000     -2.030400000000000      1.169200000000000
C       1.711900000000000     -1.205000000000000      0.704400000000000
C       2.592000000000000     -0.672200000000000     -0.414800000000000
C       3.864600000000000      0.978300000000000      0.780500000000000
C       4.889800000000000     -0.275600000000000     -0.994000000000000
C       5.218100000000000      1.330000000000000      1.374500000000000
C       4.537800000000000      0.794100000000000     -2.013900000000000
H      -4.115100000000000      2.168900000000000     -0.929300000000000
H      -2.523500000000000     -0.146200000000000      1.913300000000000
H      -4.992200000000000     -0.248600000000000      0.403200000000000
H      -4.637500000000000      1.177200000000000      1.376800000000000
H      -2.888000000000000      0.686300000000000     -2.618700000000000
H      -4.476100000000000      0.016200000000000     -2.217700000000000
H      -0.870400000000000      0.581300000000000     -1.248200000000000
H      -0.134800000000000      1.307900000000000      0.172700000000000
H      -0.847800000000000      2.322900000000000     -1.084800000000000
H      -3.167900000000000      2.735400000000000      1.792000000000000
H      -1.418900000000000      2.545400000000000      1.894000000000000
H      -2.134700000000000      3.561300000000000      0.627000000000000
H      -2.661500000000000     -1.824700000000000     -2.036700000000000
H      -1.650500000000000     -3.118100000000000     -0.229200000000000
H      -2.445000000000000     -2.797800000000000      1.312400000000000
H      -0.010500000000000     -2.948100000000000      1.589900000000000
H      -0.539000000000000     -1.301500000000000      1.981400000000000
H       1.574400000000000     -0.463500000000000      1.497700000000000
H       2.160000000000000     -2.105800000000000      1.141600000000000
H       2.663400000000000     -1.467700000000000     -1.169400000000000
H       2.080300000000000      0.162700000000000     -0.911000000000000
H       3.487500000000000      1.801200000000000      0.163000000000000
H       3.177000000000000      0.912300000000000      1.631100000000000
H       4.914400000000000     -1.253000000000000     -1.493500000000000
H       5.910600000000000     -0.136400000000000     -0.622800000000000
H       5.643900000000000      0.492100000000000      1.937300000000000
H       5.939600000000000      1.651200000000000      0.617400000000000
H       5.104800000000000      2.166200000000000      2.073800000000000
H       3.545200000000000      0.669900000000000     -2.455600000000000
H       4.631200000000000      1.811900000000000     -1.625400000000000
H       5.248300000000000      0.726500000000000     -2.846900000000000
