50

O       3.934300000000000      1.797800000000000     -0.649200000000000
N       5.228600000000000     -0.020100000000000     -0.050100000000000
C      -4.827800000000000      0.119600000000000      0.310600000000000
C      -5.099200000000000     -0.927600000000000     -0.778200000000000
C      -6.017900000000000      1.077600000000000      0.456000000000000
C      -3.546200000000000      0.893500000000000      0.007500000000000
C      -6.404900000000000     -1.678000000000000     -0.526200000000000
C      -7.321700000000000      0.323400000000000      0.706900000000000
C      -7.583700000000000     -0.721700000000000     -0.373100000000000
C      -2.304200000000000      0.050000000000000      0.298200000000000
C      -0.989900000000000      0.785700000000000      0.022000000000000
C       0.251500000000000     -0.082300000000000      0.242800000000000
C       1.530800000000000      0.681100000000000     -0.117300000000000
C       5.405800000000000     -1.381200000000000      0.443300000000000
C       6.509300000000000      0.602500000000000     -0.347600000000000
C       6.874000000000000     -1.692900000000000      0.194500000000000
C       7.542400000000000     -0.325000000000000      0.271200000000000
C       2.791000000000000     -0.145600000000000      0.118400000000000
C       4.028000000000000      0.643000000000000     -0.229700000000000
H      -4.709000000000000     -0.402000000000000      1.270500000000000
H      -5.149300000000000     -0.441700000000000     -1.761100000000000
H      -4.287200000000000     -1.660400000000000     -0.827300000000000
H      -5.841000000000000      1.773400000000000      1.284900000000000
H      -6.120500000000000      1.684800000000000     -0.452600000000000
H      -3.501200000000000      1.793100000000000      0.634500000000000
H      -3.537000000000000      1.235700000000000     -1.034500000000000
H      -6.307100000000000     -2.285300000000000      0.382100000000000
H      -6.597800000000000     -2.370100000000000     -1.353700000000000
H      -8.156200000000000      1.032600000000000      0.743300000000000
H      -7.276500000000000     -0.167500000000000      1.686900000000000
H      -8.488799999999999     -1.288100000000000     -0.126600000000000
H      -7.771800000000000     -0.218600000000000     -1.329600000000000
H      -2.318000000000000     -0.860000000000000     -0.311300000000000
H      -2.316100000000000     -0.271400000000000      1.347100000000000
H      -0.932500000000000      1.673500000000000      0.663800000000000
H      -0.996600000000000      1.144800000000000     -1.014800000000000
H       0.182500000000000     -0.988300000000000     -0.371000000000000
H       0.292800000000000     -0.402200000000000      1.290800000000000
H       4.738800000000000     -2.080100000000000     -0.068000000000000
H       5.172800000000000     -1.381500000000000      1.513600000000000
H       6.550700000000000      1.620400000000000      0.051400000000000
H       6.611600000000000      0.646600000000000     -1.437500000000000
H       1.482500000000000      0.989700000000000     -1.169600000000000
H       1.577900000000000      1.601900000000000      0.478400000000000
H       7.001400000000000     -2.107000000000000     -0.813000000000000
H       7.281200000000000     -2.410100000000000      0.912300000000000
H       7.705100000000000     -0.054800000000000      1.321600000000000
H       8.505900000000000     -0.289000000000000     -0.244400000000000
H       2.846900000000000     -0.448600000000000      1.169800000000000
H       2.755100000000000     -1.045800000000000     -0.504600000000000
