50

O       3.445000000000000     -2.590900000000000      1.264200000000000
N       2.137600000000000     -1.063300000000000      0.046400000000000
C       2.027900000000000      0.309200000000000     -0.431400000000000
C       1.074800000000000     -1.980100000000000     -0.292200000000000
C       2.010900000000000      1.308600000000000      0.736800000000000
C      -0.276900000000000     -1.498200000000000      0.259400000000000
C       3.179500000000000      0.614500000000000     -1.384600000000000
C       1.008000000000000     -2.151900000000000     -1.806900000000000
C       1.781000000000000      2.768500000000000      0.320300000000000
C      -1.438200000000000     -2.478300000000000      0.040100000000000
C       3.228700000000000     -1.475900000000000      0.802500000000000
C       0.501200000000000      2.962700000000000     -0.443700000000000
C      -2.727100000000000     -2.001700000000000      0.649200000000000
C      -0.719300000000000      3.263600000000000      0.039300000000000
C      -3.693300000000000     -1.258100000000000      0.077300000000000
C      -1.886100000000000      3.435200000000000     -0.897000000000000
C      -1.060800000000000      3.447300000000000      1.490800000000000
C      -4.930800000000000     -0.892800000000000      0.853700000000000
C      -3.662300000000000     -0.718200000000000     -1.324300000000000
H       1.105900000000000      0.419900000000000     -1.006200000000000
H       1.299400000000000     -2.958600000000000      0.149000000000000
H       2.951200000000000      1.268100000000000      1.299500000000000
H       1.225100000000000      1.014600000000000      1.445700000000000
H      -0.562200000000000     -0.532600000000000     -0.174600000000000
H      -0.168100000000000     -1.318500000000000      1.338000000000000
H       4.142200000000000      0.681100000000000     -0.866900000000000
H       3.021000000000000      1.561500000000000     -1.910200000000000
H       3.273100000000000     -0.163000000000000     -2.150800000000000
H       0.616200000000000     -1.267900000000000     -2.320000000000000
H       0.368600000000000     -2.998200000000000     -2.078200000000000
H       2.001500000000000     -2.363200000000000     -2.218900000000000
H       2.616200000000000      3.133200000000000     -0.288400000000000
H       1.787900000000000      3.398400000000000      1.217300000000000
H      -1.187300000000000     -3.450200000000000      0.482800000000000
H      -1.587800000000000     -2.667600000000000     -1.027600000000000
H       3.955000000000000     -0.666300000000000      0.969400000000000
H       0.606700000000000      2.846200000000000     -1.521800000000000
H      -2.866600000000000     -2.311800000000000      1.684200000000000
H      -2.302500000000000      4.443400000000000     -0.802200000000000
H      -2.671800000000000      2.710600000000000     -0.659500000000000
H      -1.606300000000000      3.288500000000000     -1.945600000000000
H      -1.864500000000000      2.761000000000000      1.778500000000000
H      -0.216500000000000      3.251300000000000      2.156600000000000
H      -1.399100000000000      4.472500000000000      1.672700000000000
H      -5.822700000000000     -1.274500000000000      0.345900000000000
H      -5.017400000000000      0.195500000000000      0.938400000000000
H      -4.925100000000000     -1.305000000000000      1.868200000000000
H      -3.790000000000000      0.369400000000000     -1.313000000000000
H      -2.721400000000000     -0.926200000000000     -1.840600000000000
H      -4.473100000000000     -1.155600000000000     -1.915800000000000
