50

O      -4.379900000000000      0.161900000000000      1.897300000000000
N      -5.033900000000000      1.357800000000000      0.045100000000000
C      -6.206400000000000      2.793500000000000     -0.827500000000000
C      -5.682600000000000      2.536300000000000      0.589200000000000
C      -5.217400000000000      1.741000000000000     -1.341300000000000
C       2.146200000000000     -0.727400000000000     -0.343200000000000
C       3.615500000000000     -0.978500000000000      0.003500000000000
C       1.296100000000000     -1.974000000000000     -0.087100000000000
C       4.462900000000000      0.276300000000000     -0.220100000000000
C      -0.191600000000000     -1.768200000000000     -0.388600000000000
C       5.925200000000000      0.031300000000000      0.158900000000000
C      -1.045100000000000     -3.009700000000000     -0.107500000000000
C       6.824800000000000      1.249700000000000     -0.067300000000000
C      -4.429100000000000      0.311200000000000      0.678900000000000
C      -2.520800000000000     -2.815100000000000     -0.473600000000000
C       8.281200000000000      1.012800000000000      0.334500000000000
C      -3.802400000000000     -0.683700000000000     -0.210200000000000
C      -3.188700000000000     -1.740100000000000      0.335600000000000
C       9.146000000000001      2.224900000000000      0.023500000000000
H      -6.048300000000000      3.806900000000000     -1.206900000000000
H      -7.258300000000000      2.520200000000000     -0.968000000000000
H      -4.968500000000000      3.272600000000000      0.968000000000000
H      -6.447900000000000      2.319300000000000      1.337800000000000
H      -5.660100000000000      0.966500000000000     -1.971900000000000
H      -4.304900000000000      2.137100000000000     -1.795300000000000
H       2.058900000000000     -0.433200000000000     -1.396000000000000
H       1.762800000000000      0.105300000000000      0.258800000000000
H       4.003700000000000     -1.799900000000000     -0.611000000000000
H       3.696100000000000     -1.292300000000000      1.051500000000000
H       1.674800000000000     -2.802400000000000     -0.698600000000000
H       1.407400000000000     -2.277700000000000      0.961300000000000
H       4.064700000000000      1.104000000000000      0.379200000000000
H       4.401800000000000      0.579300000000000     -1.272200000000000
H      -0.553900000000000     -0.924900000000000      0.211200000000000
H      -0.305900000000000     -1.481700000000000     -1.441400000000000
H       6.314200000000000     -0.812200000000000     -0.424900000000000
H       5.980100000000000     -0.262400000000000      1.214500000000000
H      -0.958000000000000     -3.280900000000000      0.952100000000000
H      -0.651500000000000     -3.856000000000000     -0.683800000000000
H       6.428000000000000      2.100500000000000      0.500500000000000
H       6.781900000000000      1.529800000000000     -1.127300000000000
H      -3.053200000000000     -3.756900000000000     -0.294200000000000
H      -2.604400000000000     -2.607500000000000     -1.547500000000000
H       8.338800000000001      0.789000000000000      1.405800000000000
H       8.677000000000000      0.142300000000000     -0.201400000000000
H      -3.835800000000000     -0.550100000000000     -1.284500000000000
H      -3.159000000000000     -1.878700000000000      1.413400000000000
H       9.135100000000000      2.450900000000000     -1.047500000000000
H      10.182499999999999      2.036600000000000      0.320200000000000
H       8.792500000000000      3.108100000000000      0.565200000000000
