50

O       5.458900000000000     -1.550200000000000      0.193900000000000
N      -2.002200000000000      0.456600000000000      0.232300000000000
C      -2.879900000000000      1.363600000000000      1.015200000000000
C      -1.567800000000000      1.182600000000000     -0.974900000000000
C      -2.788000000000000     -0.751600000000000     -0.083000000000000
C      -3.040300000000000      2.650200000000000      0.216900000000000
C      -4.183500000000000      0.605400000000000      1.249600000000000
C      -2.623000000000000      2.263000000000000     -1.189700000000000
C      -3.780200000000000     -0.843600000000000      1.067800000000000
C      -0.177800000000000      1.771800000000000     -0.728300000000000
C      -1.899900000000000     -1.983200000000000     -0.180700000000000
C       0.857900000000000      0.676300000000000     -0.477900000000000
C      -2.721100000000000     -3.243300000000000     -0.441700000000000
C       2.252800000000000      1.268000000000000     -0.264500000000000
C      -1.836400000000000     -4.477600000000000     -0.511800000000000
C       3.295900000000000      0.167200000000000     -0.052400000000000
C       4.703600000000000      0.724300000000000      0.134900000000000
C       5.754400000000000     -0.358100000000000      0.279900000000000
C       7.176700000000000      0.078500000000000      0.514500000000000
H      -2.404600000000000      1.574400000000000      1.980600000000000
H      -1.508400000000000      0.532500000000000     -1.857200000000000
H      -3.354400000000000     -0.621100000000000     -1.016100000000000
H      -4.052500000000000      3.064600000000000      0.246700000000000
H      -2.355400000000000      3.415000000000000      0.602500000000000
H      -4.597700000000000      0.791000000000000      2.245300000000000
H      -4.945300000000000      0.872900000000000      0.507100000000000
H      -2.255900000000000      3.121200000000000     -1.760700000000000
H      -3.485300000000000      1.844900000000000     -1.723900000000000
H      -4.648400000000000     -1.467900000000000      0.836100000000000
H      -3.309600000000000     -1.224900000000000      1.982800000000000
H       0.121900000000000      2.360800000000000     -1.604500000000000
H      -0.185400000000000      2.463400000000000      0.123600000000000
H      -1.321600000000000     -2.109300000000000      0.744000000000000
H      -1.171600000000000     -1.853100000000000     -0.990900000000000
H       0.589700000000000      0.085600000000000      0.405600000000000
H       0.879000000000000     -0.010600000000000     -1.332800000000000
H      -3.274000000000000     -3.140900000000000     -1.382700000000000
H      -3.457300000000000     -3.401200000000000      0.353400000000000
H       2.242400000000000      1.936400000000000      0.604900000000000
H       2.532900000000000      1.872900000000000     -1.135400000000000
H      -2.442800000000000     -5.368500000000000     -0.703100000000000
H      -1.298000000000000     -4.629000000000000      0.429300000000000
H      -1.101300000000000     -4.387900000000000     -1.318000000000000
H       3.283500000000000     -0.511600000000000     -0.914600000000000
H       3.021400000000000     -0.435300000000000      0.822700000000000
H       4.737300000000000      1.350700000000000      1.033100000000000
H       4.978900000000000      1.340600000000000     -0.728200000000000
H       7.821100000000000     -0.799200000000000      0.614300000000000
H       7.519600000000000      0.676300000000000     -0.333500000000000
H       7.231900000000000      0.663800000000000      1.435600000000000
