50

O      -3.971600000000000     -1.893400000000000      0.578000000000000
N       2.310100000000000     -0.315200000000000      0.036700000000000
C      -0.161200000000000     -0.050000000000000      0.248000000000000
C      -1.394100000000000      0.842700000000000     -0.049400000000000
C      -0.366300000000000     -1.461000000000000     -0.328300000000000
C       1.161800000000000      0.570400000000000     -0.285100000000000
C      -2.699500000000000      0.192500000000000      0.495000000000000
C      -1.631600000000000     -2.100800000000000      0.236900000000000
C      -1.169600000000000      2.252800000000000      0.521900000000000
C      -2.863200000000000     -1.244900000000000     -0.042900000000000
C       0.858400000000000     -2.325300000000000     -0.032500000000000
C       1.333000000000000      1.983700000000000      0.306700000000000
C       0.128000000000000      2.870100000000000      0.019500000000000
C       2.129200000000000     -1.655700000000000     -0.544300000000000
C      -3.944200000000000      1.029500000000000      0.162600000000000
C       3.594000000000000      0.228500000000000     -0.416800000000000
C      -4.124400000000000      1.165600000000000     -1.333600000000000
C       4.734500000000000     -0.327600000000000      0.432200000000000
C       6.076900000000000      0.238200000000000     -0.004700000000000
H      -0.072300000000000     -0.138400000000000      1.342600000000000
H      -1.457900000000000      0.925500000000000     -1.141700000000000
H      -0.476700000000000     -1.385700000000000     -1.419600000000000
H       1.087200000000000      0.669700000000000     -1.378100000000000
H      -2.637500000000000      0.141100000000000      1.591300000000000
H      -1.774100000000000     -3.100400000000000     -0.193900000000000
H      -1.532000000000000     -2.260500000000000      1.319200000000000
H      -1.154800000000000      2.212500000000000      1.618300000000000
H      -1.985700000000000      2.923900000000000      0.236400000000000
H      -3.033800000000000     -1.251200000000000     -1.123500000000000
H       0.747700000000000     -3.307000000000000     -0.508600000000000
H       0.946500000000000     -2.503700000000000      1.047200000000000
H       2.191300000000000      2.511700000000000     -0.115500000000000
H       1.492000000000000      1.920800000000000      1.390900000000000
H       0.053600000000000      3.047400000000000     -1.060700000000000
H       0.272700000000000      3.848900000000000      0.491500000000000
H       2.964000000000000     -2.314300000000000     -0.283100000000000
H       2.094500000000000     -1.602900000000000     -1.640900000000000
H      -3.891600000000000      2.019300000000000      0.626600000000000
H      -4.837000000000000      0.554600000000000      0.587300000000000
H       3.761700000000000      0.026100000000000     -1.483000000000000
H       3.663500000000000      1.311100000000000     -0.310600000000000
H      -4.058000000000000     -2.776500000000000      0.180400000000000
H      -3.295900000000000      1.683900000000000     -1.821600000000000
H      -5.016100000000000      1.774900000000000     -1.524600000000000
H      -4.299800000000000      0.213500000000000     -1.839000000000000
H       4.570800000000000     -0.078800000000000      1.488100000000000
H       4.791500000000000     -1.418800000000000      0.364600000000000
H       6.289400000000000     -0.017200000000000     -1.047700000000000
H       6.095900000000000      1.328300000000000      0.093800000000000
H       6.880500000000000     -0.171200000000000      0.615600000000000
