50

O       3.950800000000000      0.444100000000000      1.297800000000000
N       4.408700000000000     -0.345000000000000     -0.840200000000000
C      -3.445200000000000      2.089100000000000      0.153700000000000
C      -3.290500000000000      0.746100000000000      0.901800000000000
C      -3.268900000000000     -0.508800000000000      0.019900000000000
C      -3.026200000000000     -1.832700000000000      0.755000000000000
C      -3.082900000000000     -3.101900000000000     -0.116300000000000
C      -2.295000000000000      2.302300000000000     -0.856300000000000
C      -4.784600000000000      2.168600000000000     -0.586800000000000
C      -2.017300000000000     -3.023100000000000     -1.213100000000000
C      -2.888200000000000     -4.379000000000000      0.701800000000000
C      -0.938000000000000      2.315500000000000     -0.205500000000000
C       0.034100000000000      1.436900000000000     -0.500300000000000
C       1.371400000000000      1.373200000000000      0.094900000000000
C       1.718800000000000      2.411600000000000      1.130600000000000
C       2.210900000000000      0.410800000000000     -0.337800000000000
C       3.603400000000000      0.193000000000000      0.149600000000000
C       5.797600000000000     -0.684200000000000     -0.627300000000000
C       5.941300000000000     -2.016600000000000      0.078600000000000
H      -3.421400000000000      2.894400000000000      0.899800000000000
H      -4.117800000000000      0.650400000000000      1.617300000000000
H      -2.378500000000000      0.768500000000000      1.511000000000000
H      -4.220800000000000     -0.588000000000000     -0.517700000000000
H      -2.488700000000000     -0.395500000000000     -0.736100000000000
H      -2.052800000000000     -1.780900000000000      1.260400000000000
H      -3.777600000000000     -1.925800000000000      1.549900000000000
H      -4.068400000000000     -3.154900000000000     -0.595600000000000
H      -2.431100000000000      3.279200000000000     -1.339400000000000
H      -2.340600000000000      1.567100000000000     -1.668200000000000
H      -4.927600000000000      3.168700000000000     -1.010500000000000
H      -4.842400000000000      1.450300000000000     -1.410600000000000
H      -5.618200000000000      1.975000000000000      0.096300000000000
H      -1.021500000000000     -2.845800000000000     -0.792700000000000
H      -1.979100000000000     -3.959100000000000     -1.781700000000000
H      -2.236000000000000     -2.227300000000000     -1.931500000000000
H      -1.907900000000000     -4.391200000000000      1.190300000000000
H      -3.654800000000000     -4.459100000000000      1.479600000000000
H      -2.962700000000000     -5.266800000000000      0.065100000000000
H      -0.783800000000000      3.090100000000000      0.540300000000000
H      -0.184100000000000      0.682700000000000     -1.255700000000000
H       1.148400000000000      2.240400000000000      2.049800000000000
H       2.777000000000000      2.437100000000000      1.395100000000000
H       1.493300000000000      3.418500000000000      0.760500000000000
H       1.887500000000000     -0.280400000000000     -1.114700000000000
H       4.021700000000000     -0.524600000000000     -1.762400000000000
H       6.282700000000000     -0.717200000000000     -1.607700000000000
H       6.267100000000000      0.108000000000000     -0.034600000000000
H       5.471500000000000     -1.996700000000000      1.067400000000000
H       5.467400000000000     -2.818000000000000     -0.498100000000000
H       6.998500000000000     -2.267200000000000      0.208900000000000
