50

O      -4.797400000000000      0.544100000000000     -0.606800000000000
N      -4.090100000000000     -1.493500000000000      0.275900000000000
C       2.891300000000000      2.404700000000000      0.157100000000000
C       2.911400000000000      1.026500000000000      0.850600000000000
C       3.075900000000000     -0.142000000000000     -0.128900000000000
C       3.163100000000000     -1.478100000000000      0.617200000000000
C       3.356900000000000     -2.689500000000000     -0.313700000000000
C       1.775200000000000      2.481900000000000     -0.909700000000000
C       2.782800000000000      3.557400000000000      1.160900000000000
C       4.639300000000000     -2.591200000000000     -1.141000000000000
C       3.372000000000000     -3.979300000000000      0.510500000000000
C       0.375000000000000      2.336300000000000     -0.376400000000000
C      -0.451200000000000      1.338000000000000     -0.729700000000000
C      -1.823700000000000      1.131300000000000     -0.265700000000000
C      -2.381900000000000      2.112800000000000      0.733400000000000
C      -2.501600000000000      0.065300000000000     -0.734100000000000
C      -3.900400000000000     -0.256200000000000     -0.341500000000000
C      -5.412300000000000     -1.971100000000000      0.678600000000000
C      -2.984300000000000     -2.397400000000000      0.563400000000000
H       3.847300000000000      2.528300000000000     -0.369900000000000
H       1.997300000000000      0.885600000000000      1.440600000000000
H       3.743800000000000      1.010600000000000      1.566000000000000
H       2.234900000000000     -0.197600000000000     -0.825400000000000
H       3.983300000000000      0.027600000000000     -0.717700000000000
H       2.244900000000000     -1.618000000000000      1.201900000000000
H       3.990700000000000     -1.436400000000000      1.337200000000000
H       2.506100000000000     -2.740700000000000     -1.004800000000000
H       1.833200000000000      3.464700000000000     -1.397200000000000
H       1.966700000000000      1.762700000000000     -1.714300000000000
H       1.892500000000000      3.466800000000000      1.791300000000000
H       3.654800000000000      3.565200000000000      1.823900000000000
H       2.746200000000000      4.523700000000000      0.647400000000000
H       4.588900000000000     -1.771000000000000     -1.863100000000000
H       4.802500000000000     -3.510600000000000     -1.714000000000000
H       5.514200000000000     -2.433500000000000     -0.501300000000000
H       3.462700000000000     -4.856000000000000     -0.139700000000000
H       2.444900000000000     -4.085500000000000      1.083900000000000
H       4.210400000000000     -3.991500000000000      1.215300000000000
H       0.042700000000000      3.109900000000000      0.309300000000000
H      -0.074600000000000      0.597200000000000     -1.434100000000000
H      -2.459200000000000      3.111100000000000      0.289200000000000
H      -3.377500000000000      1.841400000000000      1.095000000000000
H      -1.739800000000000      2.169400000000000      1.619600000000000
H      -2.048700000000000     -0.629100000000000     -1.438000000000000
H      -5.606600000000000     -2.928100000000000      0.186200000000000
H      -6.188000000000000     -1.255500000000000      0.394600000000000
H      -5.425300000000000     -2.101800000000000      1.764300000000000
H      -3.131800000000000     -2.837100000000000      1.555100000000000
H      -2.008200000000000     -1.910100000000000      0.559900000000000
H      -2.990900000000000     -3.194800000000000     -0.185700000000000
