51

N       3.032100000000000     -0.807400000000000     -0.520400000000000
N       6.083900000000000      1.331300000000000     -0.493200000000000
C      -1.221500000000000     -3.254300000000000     -0.070800000000000
C      -2.529100000000000     -2.459500000000000     -0.105300000000000
C      -2.876900000000000      1.128100000000000     -1.752100000000000
C      -3.028200000000000     -0.052500000000000     -0.815600000000000
C      -0.099200000000000     -2.464300000000000      0.563600000000000
C      -2.393900000000000     -1.232200000000000     -0.962300000000000
C      -2.451100000000000      2.425700000000000     -1.052600000000000
C       1.073400000000000     -2.190900000000000     -0.041100000000000
C       2.237400000000000     -1.435400000000000      0.530000000000000
C      -4.004800000000000      0.143400000000000      0.315200000000000
C      -0.358300000000000     -1.997600000000000      1.971800000000000
C      -1.068500000000000      2.340400000000000     -0.467700000000000
C       4.163100000000000     -0.087000000000000      0.045800000000000
C      -0.684300000000000      2.584400000000000      0.799400000000000
C       4.960600000000000      0.594500000000000     -1.062100000000000
C       0.761900000000000      2.446700000000000      1.194900000000000
C      -1.596900000000000      2.986700000000000      1.922600000000000
H      -0.947400000000000     -3.569000000000000     -1.086000000000000
H      -1.375300000000000     -4.175500000000000      0.504900000000000
H      -3.303500000000000     -3.099000000000000     -0.546000000000000
H      -2.850700000000000     -2.222600000000000      0.913300000000000
H      -2.159000000000000      0.890300000000000     -2.547900000000000
H      -3.838800000000000      1.297400000000000     -2.252600000000000
H      -1.740100000000000     -1.334300000000000     -1.828100000000000
H      -3.205200000000000      2.721000000000000     -0.319400000000000
H      -2.438800000000000      3.226100000000000     -1.803500000000000
H       1.215300000000000     -2.589200000000000     -1.045600000000000
H       1.890300000000000     -0.663600000000000      1.225200000000000
H       2.863100000000000     -2.146900000000000      1.081600000000000
H      -4.446400000000000     -0.790900000000000      0.672800000000000
H      -3.519800000000000      0.643400000000000      1.158700000000000
H      -4.847400000000000      0.762500000000000     -0.013100000000000
H       0.557100000000000     -1.807400000000000      2.539400000000000
H      -0.903400000000000     -2.765300000000000      2.532400000000000
H      -0.956800000000000     -1.081000000000000      1.970400000000000
H      -0.298200000000000      2.060800000000000     -1.186200000000000
H       2.447100000000000     -0.154200000000000     -1.042200000000000
H       3.810500000000000      0.668600000000000      0.759700000000000
H       4.815600000000000     -0.782100000000000      0.589000000000000
H       5.344100000000000     -0.150200000000000     -1.768600000000000
H       4.324100000000000      1.289000000000000     -1.622600000000000
H       1.145000000000000      3.401100000000000      1.570400000000000
H       0.868800000000000      1.694300000000000      1.983200000000000
H       1.397500000000000      2.140600000000000      0.357200000000000
H      -1.577500000000000      2.226400000000000      2.710700000000000
H      -1.263100000000000      3.936400000000000      2.354100000000000
H      -2.637500000000000      3.119200000000000      1.622500000000000
H       6.578000000000000      1.821400000000000     -1.237800000000000
H       5.737300000000000      2.050200000000000      0.140800000000000
