51

N       2.781400000000000     -2.237900000000000     -0.459600000000000
N      -0.014300000000000     -3.338700000000000      1.744200000000000
C       2.298100000000000      2.550200000000000     -0.818200000000000
C       1.181400000000000      3.037400000000000      0.116900000000000
C      -1.394800000000000      1.511100000000000      1.134700000000000
C      -0.029200000000000      1.502900000000000      1.790300000000000
C       2.109000000000000      1.133400000000000     -1.314400000000000
C       1.045000000000000      2.188800000000000      1.351600000000000
C      -1.950000000000000      0.128900000000000      0.758900000000000
C       2.964800000000000      0.116800000000000     -1.091400000000000
C       2.869300000000000     -1.300000000000000     -1.576000000000000
C       0.071400000000000      0.712800000000000      3.071600000000000
C       0.871800000000000      0.908800000000000     -2.146000000000000
C      -3.364800000000000      0.172400000000000      0.252800000000000
C       1.427200000000000     -2.283800000000000      0.071100000000000
C      -3.849200000000000     -0.312000000000000     -0.907000000000000
C       1.344800000000000     -3.288500000000000      1.216400000000000
C      -5.311200000000000     -0.170800000000000     -1.239500000000000
C      -3.050500000000000     -1.031800000000000     -1.956400000000000
H       2.361400000000000      3.224100000000000     -1.681800000000000
H       3.261400000000000      2.636800000000000     -0.298400000000000
H       1.422600000000000      4.058500000000000      0.438300000000000
H       0.246900000000000      3.116500000000000     -0.443800000000000
H      -1.412500000000000      2.139300000000000      0.239700000000000
H      -2.088900000000000      1.993700000000000      1.837100000000000
H       1.959100000000000      2.129100000000000      1.942400000000000
H      -1.269200000000000     -0.350700000000000      0.052900000000000
H      -1.961100000000000     -0.513900000000000      1.647700000000000
H       3.850600000000000      0.334800000000000     -0.494900000000000
H       3.804500000000000     -1.508800000000000     -2.110900000000000
H       2.076600000000000     -1.489900000000000     -2.302600000000000
H      -0.735100000000000      0.994000000000000      3.756800000000000
H       0.003000000000000     -0.360000000000000      2.869600000000000
H       1.017700000000000      0.886900000000000      3.595200000000000
H       0.684200000000000      1.785200000000000     -2.777600000000000
H       0.933700000000000      0.065100000000000     -2.834500000000000
H      -0.000800000000000      0.767900000000000     -1.505600000000000
H      -4.065500000000000      0.655600000000000      0.933100000000000
H       3.043900000000000     -3.168300000000000     -0.785200000000000
H       1.127800000000000     -1.298000000000000      0.445600000000000
H       0.719400000000000     -2.570700000000000     -0.717400000000000
H       2.028900000000000     -3.002900000000000      2.023300000000000
H       1.633100000000000     -4.288500000000000      0.872500000000000
H      -5.435000000000000      0.391800000000000     -2.170800000000000
H      -5.768900000000000     -1.157500000000000     -1.365400000000000
H      -5.868700000000000      0.356000000000000     -0.457900000000000
H      -3.472500000000000     -2.027100000000000     -2.132300000000000
H      -3.081400000000000     -0.474300000000000     -2.898500000000000
H      -2.000300000000000     -1.170600000000000     -1.694000000000000
H      -0.069000000000000     -4.051800000000000      2.470200000000000
H      -0.658500000000000     -3.628100000000000      1.009400000000000
