51

N       3.807100000000000     -0.421700000000000      0.157500000000000
N      -0.470500000000000     -2.438900000000000     -1.211000000000000
C       3.815900000000000      0.808600000000000     -0.633700000000000
C       4.726400000000000     -0.166800000000000      1.266000000000000
C       5.289200000000000      1.187900000000000     -0.658500000000000
C       5.888300000000000      0.544000000000000      0.587900000000000
C       2.472200000000000     -0.779400000000000      0.613600000000000
C       1.680300000000000     -1.424400000000000     -0.525200000000000
C       0.256900000000000     -1.811600000000000     -0.118000000000000
C      -1.817300000000000     -2.816000000000000     -0.788500000000000
C      -2.742600000000000     -1.634300000000000     -0.794100000000000
C      -3.446800000000000     -1.126400000000000      0.237000000000000
C      -4.337300000000000      0.096200000000000      0.160400000000000
C      -3.849700000000000      1.272000000000000      1.017000000000000
C      -3.351400000000000     -1.763400000000000      1.600100000000000
C      -2.428600000000000      1.659000000000000      0.714100000000000
C      -1.985700000000000      2.564500000000000     -0.178400000000000
C      -0.544300000000000      2.903200000000000     -0.431000000000000
C      -2.962100000000000      3.347700000000000     -1.015400000000000
H       3.238300000000000      1.609300000000000     -0.153900000000000
H       3.433500000000000      0.663100000000000     -1.648500000000000
H       5.050500000000000     -1.090200000000000      1.756200000000000
H       4.277200000000000      0.491800000000000      2.020600000000000
H       5.424000000000000      2.274300000000000     -0.657900000000000
H       5.779900000000000      0.788700000000000     -1.554100000000000
H       6.666600000000000     -0.171700000000000      0.297700000000000
H       6.345300000000000      1.287300000000000      1.248900000000000
H       2.547200000000000     -1.518600000000000      1.422000000000000
H       1.933300000000000      0.083500000000000      1.025200000000000
H       2.213600000000000     -2.318000000000000     -0.876600000000000
H       1.617600000000000     -0.737500000000000     -1.378500000000000
H      -0.260000000000000     -0.904300000000000      0.215800000000000
H       0.311300000000000     -2.494000000000000      0.739500000000000
H       0.032500000000000     -3.275000000000000     -1.508400000000000
H      -1.786100000000000     -3.362400000000000      0.157800000000000
H      -2.210900000000000     -3.526600000000000     -1.526000000000000
H      -2.841800000000000     -1.135300000000000     -1.758000000000000
H      -5.352200000000000     -0.181100000000000      0.471400000000000
H      -4.422600000000000      0.426000000000000     -0.883200000000000
H      -3.908600000000000      1.008400000000000      2.080900000000000
H      -4.531500000000000      2.121300000000000      0.901000000000000
H      -2.512600000000000     -1.342100000000000      2.162800000000000
H      -3.246000000000000     -2.850600000000000      1.558500000000000
H      -4.267900000000000     -1.580400000000000      2.172700000000000
H      -1.677800000000000      1.123700000000000      1.294500000000000
H      -0.359400000000000      3.963100000000000     -0.229500000000000
H       0.124400000000000      2.318400000000000      0.209500000000000
H      -0.278200000000000      2.691400000000000     -1.471500000000000
H      -3.993300000000000      2.992800000000000     -0.962500000000000
H      -2.672300000000000      3.293600000000000     -2.070900000000000
H      -2.951900000000000      4.400500000000000     -0.714100000000000
