51

N       4.514100000000000     -0.234600000000000      0.227300000000000
N       4.206300000000000      0.876200000000000      0.918500000000000
C      -0.961600000000000     -0.631900000000000      0.538300000000000
C      -2.355400000000000     -1.093400000000000      0.099900000000000
C       0.194100000000000     -1.574200000000000      0.177800000000000
C      -3.458300000000000     -0.087200000000000      0.431800000000000
C       1.560800000000000     -1.050900000000000      0.626800000000000
C      -4.815000000000000     -0.548400000000000     -0.106200000000000
C       2.719000000000000     -1.988800000000000      0.267100000000000
C      -5.905600000000000      0.481700000000000      0.196000000000000
C       4.101600000000000     -1.533700000000000      0.746300000000000
C      -7.284700000000000      0.081500000000000     -0.334900000000000
C      -8.356100000000000      1.147200000000000     -0.099000000000000
C       5.204900000000000      0.006300000000000     -0.924000000000000
C      -9.688200000000000      0.737800000000000     -0.708800000000000
C       5.359300000000000      1.369500000000000     -0.990800000000000
C       4.725200000000000      1.852800000000000      0.169500000000000
C       5.647000000000000     -1.064100000000000     -1.836600000000000
C       4.592700000000000      3.254300000000000      0.600900000000000
H      -0.967700000000000     -0.481000000000000      1.625300000000000
H      -0.761300000000000      0.350100000000000      0.091100000000000
H      -2.582200000000000     -2.055000000000000      0.576100000000000
H      -2.341700000000000     -1.271600000000000     -0.982600000000000
H       0.204800000000000     -1.728100000000000     -0.908200000000000
H       0.012000000000000     -2.554000000000000      0.635700000000000
H      -3.204900000000000      0.887100000000000     -0.003300000000000
H      -3.515400000000000      0.049200000000000      1.518400000000000
H       1.548900000000000     -0.894300000000000      1.712300000000000
H       1.722100000000000     -0.071300000000000      0.162900000000000
H      -4.749700000000000     -0.703200000000000     -1.189900000000000
H      -5.083700000000000     -1.511600000000000      0.343700000000000
H       2.519500000000000     -2.979700000000000      0.693200000000000
H       2.739600000000000     -2.116000000000000     -0.822300000000000
H      -5.970700000000000      0.636200000000000      1.280200000000000
H      -5.620200000000000      1.445400000000000     -0.244200000000000
H       4.863700000000000     -2.267200000000000      0.463400000000000
H       4.119100000000000     -1.461600000000000      1.840500000000000
H      -7.206400000000000     -0.116800000000000     -1.411200000000000
H      -7.594600000000000     -0.858600000000000      0.138100000000000
H      -8.483000000000001      1.313200000000000      0.976900000000000
H      -8.037300000000000      2.098800000000000     -0.539800000000000
H     -10.441300000000000      1.510800000000000     -0.526900000000000
H     -10.048900000000000     -0.198200000000000     -0.270400000000000
H      -9.598699999999999      0.598900000000000     -1.790900000000000
H       5.859100000000000      1.930500000000000     -1.767400000000000
H       6.382100000000000     -1.713500000000000     -1.350700000000000
H       4.803100000000000     -1.676800000000000     -2.168200000000000
H       6.118700000000000     -0.643000000000000     -2.730800000000000
H       3.537700000000000      3.534300000000000      0.687800000000000
H       5.070700000000000      3.406600000000000      1.574100000000000
H       5.062700000000000      3.937700000000000     -0.113800000000000
