51

N      -1.724000000000000     -0.038800000000000      0.123300000000000
N       2.518700000000000     -0.282200000000000      0.186000000000000
C       1.159500000000000     -0.209600000000000     -0.345300000000000
C      -3.125900000000000      0.046500000000000     -0.285300000000000
C       0.481300000000000      1.085200000000000      0.109800000000000
C       0.331200000000000     -1.417900000000000      0.101100000000000
C      -0.976900000000000      1.133100000000000     -0.354400000000000
C      -1.122100000000000     -1.288300000000000     -0.362400000000000
C       3.294100000000000      0.899200000000000     -0.221300000000000
C      -3.891200000000000     -1.181600000000000      0.219800000000000
C      -3.746100000000000      1.342400000000000      0.248500000000000
C       4.709900000000000      0.869000000000000      0.378800000000000
C       3.173900000000000     -1.523200000000000     -0.247900000000000
C       5.431900000000000     -0.426400000000000     -0.008000000000000
C       4.578100000000000     -1.639700000000000      0.344900000000000
C      -5.377400000000000     -1.090700000000000     -0.122200000000000
C      -5.232300000000000      1.430300000000000     -0.094300000000000
C      -5.996400000000000      0.204000000000000      0.397000000000000
C       5.514000000000000      2.088500000000000     -0.067900000000000
H       1.190700000000000     -0.207500000000000     -1.445000000000000
H      -3.193800000000000      0.062300000000000     -1.383100000000000
H       0.953300000000000      1.974200000000000     -0.320400000000000
H       0.522500000000000      1.180600000000000      1.203200000000000
H       0.360600000000000     -1.522100000000000      1.194100000000000
H       0.702900000000000     -2.353100000000000     -0.330000000000000
H      -1.362000000000000      2.066300000000000      0.064100000000000
H      -1.018300000000000      1.211000000000000     -1.448800000000000
H      -1.172700000000000     -1.354500000000000     -1.457200000000000
H      -1.614100000000000     -2.171900000000000      0.052100000000000
H       2.852300000000000      1.823200000000000      0.161500000000000
H       3.345500000000000      0.978200000000000     -1.315600000000000
H      -3.774800000000000     -1.289800000000000      1.306000000000000
H      -3.547100000000000     -2.109700000000000     -0.246000000000000
H      -3.295700000000000      2.235400000000000     -0.194800000000000
H      -3.619900000000000      1.411100000000000      1.336800000000000
H       4.625900000000000      0.904100000000000      1.473900000000000
H       3.226700000000000     -1.582100000000000     -1.342900000000000
H       2.647000000000000     -2.411600000000000      0.110100000000000
H       6.397500000000000     -0.492100000000000      0.506600000000000
H       5.641500000000000     -0.432500000000000     -1.085300000000000
H       5.062400000000000     -2.550500000000000     -0.025500000000000
H       4.511600000000000     -1.734400000000000      1.436300000000000
H      -5.908100000000000     -1.949000000000000      0.305400000000000
H      -5.506600000000000     -1.145100000000000     -1.210400000000000
H      -5.352600000000000      1.523200000000000     -1.180900000000000
H      -5.661600000000000      2.334200000000000      0.352700000000000
H      -7.042100000000000      0.267800000000000      0.075600000000000
H      -5.999100000000000      0.192000000000000      1.493900000000000
H       5.019700000000000      3.015400000000000      0.241500000000000
H       6.514300000000000      2.077900000000000      0.377800000000000
H       5.628800000000000      2.113300000000000     -1.156900000000000
