51

N      -0.132000000000000     -0.521300000000000     -0.691600000000000
N      -3.669200000000000      0.128400000000000      0.307400000000000
C       1.411000000000000      0.818800000000000      0.755600000000000
C       2.304900000000000     -0.460400000000000     -1.226000000000000
C       3.831900000000000      1.072400000000000      0.078600000000000
C       3.034300000000000     -1.083900000000000      1.110800000000000
C       1.079200000000000      0.300300000000000     -0.664700000000000
C       2.601100000000000      1.794200000000000      0.655300000000000
C       1.809500000000000     -0.348400000000000      1.682400000000000
C       3.490900000000000      0.521000000000000     -1.317000000000000
C       2.699900000000000     -1.622500000000000     -0.291200000000000
C       4.209500000000000     -0.096900000000000      1.003700000000000
C      -1.271300000000000      0.233200000000000     -0.171600000000000
C      -0.402800000000000     -0.986000000000000     -2.051000000000000
C      -2.536100000000000     -0.618300000000000     -0.227800000000000
C      -4.880500000000000     -0.693100000000000      0.291800000000000
C      -3.880600000000000      1.360100000000000     -0.454600000000000
C      -4.682800000000000     -1.977900000000000      1.078100000000000
C      -5.016900000000000      2.180400000000000      0.131800000000000
H       0.593200000000000      1.387800000000000      1.204900000000000
H       2.158100000000000     -0.833300000000000     -2.241900000000000
H       4.671500000000000      1.772500000000000      0.005500000000000
H       3.308800000000000     -1.914300000000000      1.770800000000000
H       0.912200000000000      1.177400000000000     -1.309200000000000
H       2.837900000000000      2.199500000000000      1.647100000000000
H       2.335400000000000      2.647900000000000      0.019700000000000
H       0.972900000000000     -1.046900000000000      1.801400000000000
H       2.041400000000000      0.035400000000000      2.683800000000000
H       3.245100000000000      1.346600000000000     -1.996400000000000
H       4.366400000000000      0.012800000000000     -1.740400000000000
H       3.569600000000000     -2.150200000000000     -0.702400000000000
H       1.889400000000000     -2.358000000000000     -0.228500000000000
H       5.096900000000000     -0.611300000000000      0.614600000000000
H       4.472500000000000      0.282200000000000      1.998900000000000
H      -1.133100000000000      0.500300000000000      0.880000000000000
H      -1.352400000000000      1.152200000000000     -0.758100000000000
H      -0.604300000000000     -0.162100000000000     -2.745400000000000
H      -1.235100000000000     -1.693700000000000     -2.094200000000000
H       0.404300000000000     -1.595700000000000     -2.462900000000000
H      -2.798300000000000     -0.921600000000000     -1.245800000000000
H      -2.334700000000000     -1.521200000000000      0.358800000000000
H      -5.706300000000000     -0.169800000000000      0.784800000000000
H      -5.202700000000000     -0.932200000000000     -0.729600000000000
H      -3.019300000000000      2.028400000000000     -0.388100000000000
H      -4.071100000000000      1.162700000000000     -1.516900000000000
H      -4.225700000000000     -1.791900000000000      2.056200000000000
H      -4.081500000000000     -2.713800000000000      0.535300000000000
H      -5.656100000000000     -2.448300000000000      1.259500000000000
H      -4.919800000000000      2.292200000000000      1.217300000000000
H      -5.999800000000000      1.756700000000000     -0.096100000000000
H      -5.005400000000000      3.187200000000000     -0.301300000000000
