51

N       6.742400000000000     -0.190400000000000      0.070200000000000
N       8.564800000000000      0.762200000000000     -0.768500000000000
C      -2.136600000000000     -0.583300000000000      0.028000000000000
C      -0.802700000000000      0.160400000000000     -0.085000000000000
C      -3.356000000000000      0.340000000000000     -0.039100000000000
C       0.417100000000000     -0.758900000000000      0.007500000000000
C      -4.657800000000000     -0.455200000000000      0.091300000000000
C       1.720000000000000      0.039300000000000     -0.079900000000000
C      -5.912700000000000      0.422700000000000      0.061900000000000
C       2.941200000000000     -0.874300000000000      0.044800000000000
C      -7.249000000000000     -0.325600000000000      0.103700000000000
C       4.243800000000000     -0.078600000000000     -0.075300000000000
C      -8.502500000000000      0.551100000000000      0.019100000000000
C       5.493300000000000     -0.940700000000000      0.122300000000000
C      -9.834800000000000     -0.201800000000000     -0.000800000000000
C     -11.042800000000000      0.706900000000000     -0.167600000000000
C       7.379700000000000      0.394200000000000      1.128200000000000
C       7.490900000000000      0.056800000000000     -1.046700000000000
C       8.501799999999999      0.975300000000000      0.585800000000000
H      -2.200300000000000     -1.327000000000000     -0.776000000000000
H      -2.156000000000000     -1.138100000000000      0.974400000000000
H      -0.747600000000000      0.913900000000000      0.710600000000000
H      -0.775300000000000      0.703900000000000     -1.037600000000000
H      -3.298100000000000      1.083500000000000      0.764700000000000
H      -3.351800000000000      0.887700000000000     -0.988900000000000
H       0.386600000000000     -1.311200000000000      0.954500000000000
H       0.380900000000000     -1.499200000000000     -0.800600000000000
H      -4.646900000000000     -1.025700000000000      1.028100000000000
H      -4.715500000000000     -1.186800000000000     -0.724100000000000
H       1.757300000000000      0.575800000000000     -1.035800000000000
H       1.744300000000000      0.793700000000000      0.715900000000000
H      -5.888800000000000      1.035400000000000     -0.848300000000000
H      -5.875100000000000      1.122800000000000      0.905900000000000
H       2.911800000000000     -1.644500000000000     -0.735200000000000
H       2.914900000000000     -1.390900000000000      1.011900000000000
H      -7.293500000000000     -0.916700000000000      1.026900000000000
H      -7.270700000000000     -1.044800000000000     -0.724800000000000
H       4.244900000000000      0.729500000000000      0.667400000000000
H       4.288000000000000      0.406700000000000     -1.058600000000000
H      -8.434100000000001      1.165200000000000     -0.888000000000000
H      -8.501600000000000      1.249600000000000      0.865300000000000
H       5.464900000000000     -1.444100000000000      1.095900000000000
H       5.551700000000000     -1.718000000000000     -0.648500000000000
H      -9.941100000000000     -0.772400000000000      0.929300000000000
H      -9.826100000000000     -0.929700000000000     -0.820600000000000
H     -10.987100000000000      1.261400000000000     -1.109600000000000
H     -11.964600000000001      0.117100000000000     -0.172700000000000
H     -11.103800000000000      1.428700000000000      0.653000000000000
H       6.995200000000000      0.349900000000000      2.137600000000000
H       7.206100000000000     -0.297500000000000     -2.028000000000000
H       9.266600000000000      1.537200000000000      1.101500000000000
