51

N      -1.027800000000000     -1.317500000000000     -0.478800000000000
N       0.472100000000000      1.119900000000000     -0.334300000000000
C      -2.444400000000000      1.189700000000000      0.346700000000000
C      -1.391200000000000      0.488500000000000      1.247500000000000
C      -1.928100000000000      0.957700000000000     -1.100000000000000
C      -1.327500000000000     -1.031200000000000      0.930900000000000
C      -1.865400000000000     -0.561400000000000     -1.419800000000000
C       0.007200000000000      1.138800000000000      1.059300000000000
C      -0.530200000000000      1.608000000000000     -1.291400000000000
C      -3.863500000000000      0.607400000000000      0.555100000000000
C      -2.578900000000000      2.695700000000000      0.678500000000000
C      -1.079600000000000     -2.750400000000000     -0.753300000000000
C       1.739000000000000      1.829900000000000     -0.482200000000000
C      -0.084000000000000     -3.496800000000000      0.132900000000000
C       2.825000000000000      1.155300000000000      0.354800000000000
C       1.348200000000000     -3.030500000000000     -0.130800000000000
C       4.141800000000000      1.858600000000000      0.200500000000000
C       2.341900000000000     -3.743400000000000      0.772600000000000
C       5.245300000000000      1.281800000000000     -0.288200000000000
H      -1.679100000000000      0.603200000000000      2.301000000000000
H      -2.619000000000000      1.425100000000000     -1.813900000000000
H      -2.263800000000000     -1.512500000000000      1.237600000000000
H      -0.546300000000000     -1.434600000000000      1.583900000000000
H      -1.458700000000000     -0.682400000000000     -2.432300000000000
H      -2.880900000000000     -0.973500000000000     -1.452700000000000
H       0.687200000000000      0.566100000000000      1.698700000000000
H      -0.002600000000000      2.160800000000000      1.456100000000000
H      -0.620300000000000      2.699400000000000     -1.235500000000000
H      -0.185800000000000      1.386300000000000     -2.309900000000000
H      -4.197800000000000      0.764600000000000      1.587300000000000
H      -4.584800000000000      1.101200000000000     -0.106700000000000
H      -3.938900000000000     -0.464200000000000      0.359700000000000
H      -2.924700000000000      2.834700000000000      1.709600000000000
H      -1.648700000000000      3.258700000000000      0.580000000000000
H      -3.309700000000000      3.173700000000000      0.015500000000000
H      -2.088000000000000     -3.149900000000000     -0.586500000000000
H      -0.826700000000000     -2.940400000000000     -1.804000000000000
H       2.050100000000000      1.809100000000000     -1.535000000000000
H       1.634400000000000      2.886000000000000     -0.199700000000000
H      -0.336400000000000     -3.441300000000000      1.196700000000000
H      -0.149700000000000     -4.564000000000000     -0.118400000000000
H       2.915700000000000      0.098100000000000      0.076100000000000
H       2.599400000000000      1.191700000000000      1.425300000000000
H       1.614600000000000     -3.217400000000000     -1.177700000000000
H       1.450400000000000     -1.954200000000000      0.040900000000000
H       4.194300000000000      2.896900000000000      0.518100000000000
H       2.309300000000000     -4.826100000000000      0.614400000000000
H       2.126800000000000     -3.542700000000000      1.827000000000000
H       3.359600000000000     -3.399700000000000      0.562400000000000
H       6.169100000000000      1.844200000000000     -0.369300000000000
H       5.248100000000000      0.247700000000000     -0.614400000000000
