51

N      -3.592900000000000      0.594300000000000      0.280400000000000
N       3.185700000000000     -0.431600000000000      1.287500000000000
C      -1.312600000000000      0.536200000000000     -0.729000000000000
C       0.058000000000000     -0.181200000000000     -0.805700000000000
C      -2.281300000000000     -0.106500000000000      0.304000000000000
C      -0.148900000000000     -1.675600000000000     -1.093400000000000
C      -2.428900000000000     -1.614900000000000     -0.003000000000000
C      -1.080600000000000     -2.345700000000000     -0.079700000000000
C      -1.161400000000000      2.043200000000000     -0.483000000000000
C       0.946700000000000      0.021200000000000      0.427700000000000
C      -2.528200000000000      2.709600000000000     -0.463400000000000
C      -3.440900000000000      2.033700000000000      0.553900000000000
C       2.425400000000000     -0.118600000000000      0.070900000000000
C      -1.289700000000000     -3.817300000000000     -0.439500000000000
C       2.946100000000000      1.170500000000000     -0.579400000000000
C      -4.556500000000000      0.030000000000000      1.230900000000000
C       4.441700000000000      1.078200000000000     -0.869800000000000
C       4.612300000000000     -0.593600000000000      1.006300000000000
C       5.206000000000000      0.668000000000000      0.384300000000000
H      -1.776900000000000      0.422300000000000     -1.721700000000000
H       0.568500000000000      0.239700000000000     -1.680900000000000
H      -1.843000000000000     -0.005400000000000      1.307200000000000
H       0.810400000000000     -2.204500000000000     -1.120700000000000
H      -0.578000000000000     -1.780100000000000     -2.099400000000000
H      -2.971500000000000     -1.744400000000000     -0.949300000000000
H      -3.026200000000000     -2.104000000000000      0.775300000000000
H      -0.621800000000000     -2.326800000000000      0.915200000000000
H      -0.539700000000000      2.496300000000000     -1.263700000000000
H      -0.683300000000000      2.254600000000000      0.477600000000000
H       0.675800000000000     -0.700100000000000      1.206100000000000
H       0.803800000000000      0.997500000000000      0.896400000000000
H      -2.419100000000000      3.771600000000000     -0.215300000000000
H      -2.980700000000000      2.659600000000000     -1.461800000000000
H      -3.050500000000000      2.196200000000000      1.567400000000000
H      -4.419600000000000      2.526900000000000      0.501000000000000
H       2.562500000000000     -0.950400000000000     -0.630600000000000
H      -1.758200000000000     -3.924800000000000     -1.423700000000000
H      -0.334000000000000     -4.351700000000000     -0.458800000000000
H      -1.933400000000000     -4.310000000000000      0.297000000000000
H       2.765400000000000      2.028200000000000      0.082200000000000
H       2.420900000000000      1.380700000000000     -1.517000000000000
H      -4.860200000000000     -0.979800000000000      0.939300000000000
H      -4.159100000000000      0.001500000000000      2.251700000000000
H      -5.481700000000000      0.618400000000000      1.241700000000000
H       2.827900000000000     -1.291500000000000      1.702800000000000
H       4.813400000000000      2.040700000000000     -1.238100000000000
H       4.615500000000000      0.340300000000000     -1.662700000000000
H       4.771300000000000     -1.454300000000000      0.345200000000000
H       5.135000000000000     -0.810300000000000      1.944200000000000
H       6.260100000000000      0.499400000000000      0.136900000000000
H       5.175600000000000      1.487100000000000      1.114100000000000
