52

O      10.750200000000000      0.484400000000000     -0.427800000000000
O       9.711800000000000     -1.511200000000000     -0.083300000000000
C      -0.546200000000000     -0.243300000000000      0.301400000000000
C       0.754000000000000      0.565700000000000      0.278200000000000
C      -1.804000000000000      0.619000000000000      0.170700000000000
C       2.050300000000000     -0.251400000000000      0.325200000000000
C      -3.062600000000000     -0.250300000000000      0.116300000000000
C       3.351200000000000      0.553200000000000      0.243200000000000
C      -4.358100000000000      0.552800000000000     -0.037800000000000
C       4.607900000000000     -0.320500000000000      0.241400000000000
C      -5.654400000000000     -0.264500000000000     -0.067200000000000
C       5.868500000000000      0.530200000000000      0.065000000000000
C      -6.918700000000000      0.592000000000000     -0.169600000000000
C       7.157600000000000     -0.294500000000000      0.026800000000000
C      -8.181699999999999     -0.275200000000000     -0.111700000000000
C       8.409500000000000      0.546500000000000     -0.220500000000000
C      -9.468999999999999      0.549000000000000     -0.179100000000000
C       9.658799999999999     -0.299800000000000     -0.233200000000000
C     -10.671900000000001     -0.295600000000000     -0.136400000000000
C     -11.653200000000000     -0.986400000000000     -0.101500000000000
H      -0.592900000000000     -0.819900000000000      1.233400000000000
H      -0.521200000000000     -0.971000000000000     -0.519300000000000
H       0.750000000000000      1.266400000000000      1.122600000000000
H       0.767500000000000      1.179500000000000     -0.631500000000000
H      -1.741000000000000      1.226200000000000     -0.740200000000000
H      -1.866600000000000      1.311000000000000      1.018700000000000
H       2.033200000000000     -0.972800000000000     -0.501700000000000
H       2.057800000000000     -0.842600000000000      1.249500000000000
H      -2.983400000000000     -0.954800000000000     -0.720900000000000
H      -3.124900000000000     -0.852800000000000      1.030900000000000
H       3.393900000000000      1.252900000000000      1.086800000000000
H       3.330900000000000      1.160200000000000     -0.670500000000000
H      -4.297100000000000      1.145400000000000     -0.959400000000000
H      -4.419400000000000      1.273200000000000      0.788000000000000
H       4.667900000000000     -0.883400000000000      1.180300000000000
H       4.545200000000000     -1.052400000000000     -0.572700000000000
H      -5.617700000000000     -0.962400000000000     -0.912600000000000
H      -5.704100000000000     -0.874300000000000      0.843600000000000
H       5.933000000000000      1.259000000000000      0.882400000000000
H       5.787000000000000      1.105000000000000     -0.866000000000000
H      -6.902600000000000      1.162100000000000     -1.106100000000000
H      -6.937200000000000      1.317700000000000      0.652300000000000
H       7.074400000000000     -1.056200000000000     -0.759100000000000
H       7.263000000000000     -0.839400000000000      0.973600000000000
H      -8.176700000000000     -0.865000000000000      0.814200000000000
H      -8.164400000000001     -0.996100000000000     -0.939500000000000
H       8.328400000000000      1.055200000000000     -1.187300000000000
H       8.510400000000001      1.296700000000000      0.571600000000000
H      -9.494000000000000      1.258700000000000      0.656200000000000
H      -9.475899999999999      1.142600000000000     -1.100900000000000
H      11.579800000000001     -0.039100000000000     -0.436000000000000
H     -12.523500000000000     -1.599300000000000     -0.070400000000000
