52

O       4.896700000000000     -0.145500000000000     -0.103400000000000
O       5.903400000000000      0.203000000000000      1.946600000000000
C       0.472000000000000      1.596300000000000     -1.555300000000000
C       1.526400000000000      1.524600000000000     -0.445900000000000
C      -0.780100000000000      2.420700000000000     -1.231900000000000
C       2.760700000000000      0.703900000000000     -0.832700000000000
C      -1.561400000000000      1.970000000000000      0.006600000000000
C       3.782900000000000      0.639800000000000      0.296500000000000
C      -2.750300000000000      2.840300000000000      0.299300000000000
C      -4.488800000000000      0.975800000000000      0.110400000000000
C      -4.011900000000000      2.386100000000000      0.338900000000000
C      -4.528000000000000      0.015400000000000      1.307200000000000
C      -2.002200000000000     -2.543400000000000     -0.706200000000000
C      -2.640600000000000     -2.244100000000000      0.654100000000000
C      -0.475400000000000     -2.435100000000000     -0.687500000000000
C      -4.976000000000000     -1.368000000000000      0.926300000000000
C      -4.136200000000000     -2.372500000000000      0.635800000000000
C       0.120500000000000     -2.751000000000000     -2.050400000000000
C       5.892900000000000     -0.283900000000000      0.824100000000000
C       6.995500000000000     -1.132500000000000      0.267200000000000
H       0.934800000000000      2.016700000000000     -2.456900000000000
H       0.160500000000000      0.577800000000000     -1.816700000000000
H       1.834900000000000      2.542300000000000     -0.178000000000000
H       1.084100000000000      1.077000000000000      0.451300000000000
H      -1.444600000000000      2.393200000000000     -2.105100000000000
H      -0.480200000000000      3.469300000000000     -1.106000000000000
H       2.462800000000000     -0.315000000000000     -1.109600000000000
H       3.232700000000000      1.130900000000000     -1.726100000000000
H      -1.829100000000000      0.915900000000000     -0.106800000000000
H      -0.910900000000000      2.023500000000000      0.887400000000000
H       4.122800000000000      1.652100000000000      0.545800000000000
H       3.324500000000000      0.190700000000000      1.185600000000000
H      -2.564300000000000      3.891600000000000      0.502800000000000
H      -3.895700000000000      0.525500000000000     -0.696400000000000
H      -5.501700000000000      1.047200000000000     -0.310600000000000
H      -4.791200000000000      3.105700000000000      0.583500000000000
H      -3.571900000000000      0.020700000000000      1.838400000000000
H      -5.247100000000000      0.402100000000000      2.042100000000000
H      -2.289100000000000     -3.552300000000000     -1.029800000000000
H      -2.402400000000000     -1.846400000000000     -1.454000000000000
H      -2.288500000000000     -1.266000000000000      0.986200000000000
H      -2.257600000000000     -2.963500000000000      1.389100000000000
H      -0.064800000000000     -3.129600000000000      0.054500000000000
H      -0.177600000000000     -1.425500000000000     -0.383900000000000
H      -6.046400000000000     -1.548200000000000      0.873600000000000
H      -4.552300000000000     -3.340800000000000      0.370400000000000
H      -0.133800000000000     -3.768400000000000     -2.364100000000000
H      -0.247700000000000     -2.054000000000000     -2.810000000000000
H       1.211300000000000     -2.668700000000000     -2.014700000000000
H       7.417000000000000     -0.655700000000000     -0.621200000000000
H       7.786400000000000     -1.236600000000000      1.015400000000000
H       6.611500000000000     -2.126700000000000      0.025700000000000
