52

O       2.471700000000000      4.090000000000000     -0.662700000000000
O       0.437900000000000      4.954300000000000     -1.204200000000000
C      -2.971100000000000      1.610400000000000      1.101000000000000
C      -3.540200000000000      0.484000000000000      1.970000000000000
C      -1.442700000000000      1.689500000000000      1.032000000000000
C      -3.207300000000000     -0.940300000000000      1.514900000000000
C      -0.933200000000000      2.880400000000000      0.213400000000000
C       2.339200000000000     -1.659500000000000     -0.165800000000000
C      -3.762200000000000     -1.279500000000000      0.129600000000000
C       2.313800000000000     -1.685200000000000     -1.698000000000000
C       3.729400000000000     -1.924300000000000      0.420900000000000
C       0.594100000000000      2.939100000000000      0.161600000000000
C       0.933800000000000     -1.354500000000000     -2.277000000000000
C       3.773400000000000     -1.820400000000000      1.945900000000000
C      -3.401000000000000     -2.682200000000000     -0.268800000000000
C      -0.117400000000000     -2.356000000000000     -1.891800000000000
C       5.185900000000000     -2.019000000000000      2.474500000000000
C      -2.261600000000000     -3.005300000000000     -0.898700000000000
C      -1.256700000000000     -2.032500000000000     -1.262000000000000
C       1.114400000000000      4.111200000000000     -0.634800000000000
H      -3.379100000000000      1.544600000000000      0.086300000000000
H      -3.343400000000000      2.559500000000000      1.508300000000000
H      -3.176400000000000      0.613900000000000      2.996800000000000
H      -4.630900000000000      0.595200000000000      2.012800000000000
H      -1.042500000000000      1.756000000000000      2.051200000000000
H      -1.045300000000000      0.766900000000000      0.596000000000000
H      -3.624800000000000     -1.640700000000000      2.250400000000000
H      -2.121000000000000     -1.085100000000000      1.540800000000000
H      -1.331600000000000      2.818800000000000     -0.807100000000000
H      -1.320700000000000      3.812300000000000      0.643800000000000
H       1.645100000000000     -2.407700000000000      0.234700000000000
H       1.985300000000000     -0.680300000000000      0.180800000000000
H      -4.857300000000000     -1.208200000000000      0.153100000000000
H      -3.448600000000000     -0.556100000000000     -0.628100000000000
H       2.639200000000000     -2.671400000000000     -2.052200000000000
H       3.036900000000000     -0.956100000000000     -2.083500000000000
H       4.438000000000000     -1.204700000000000     -0.008000000000000
H       4.066500000000000     -2.921800000000000      0.113100000000000
H       0.978200000000000      2.020500000000000     -0.296700000000000
H       0.991800000000000      3.019100000000000      1.179600000000000
H       0.644200000000000     -0.341800000000000     -1.970100000000000
H       1.007000000000000     -1.341300000000000     -3.371100000000000
H       3.109500000000000     -2.572200000000000      2.387900000000000
H       3.407000000000000     -0.836900000000000      2.262000000000000
H      -4.102400000000000     -3.472100000000000     -0.013300000000000
H       0.076100000000000     -3.391300000000000     -2.164300000000000
H       5.573000000000000     -3.004900000000000      2.198000000000000
H       5.195600000000000     -1.944000000000000      3.566300000000000
H       5.865000000000000     -1.258500000000000      2.075800000000000
H      -2.076100000000000     -4.047100000000000     -1.145400000000000
H      -1.412700000000000     -0.989500000000000     -1.012300000000000
H       2.838400000000000      4.834400000000000     -1.186000000000000
