52

O      -6.069900000000000      3.908800000000000      0.029000000000000
O      -7.004600000000000      1.839900000000000      0.030200000000000
C       1.386100000000000     -3.818700000000000      0.007600000000000
C       0.090900000000000     -3.941600000000000      0.029500000000000
C       0.859200000000000     -5.147000000000000      0.053900000000000
C       2.681900000000000     -3.080400000000000     -0.036500000000000
C      -1.269400000000000     -3.478200000000000      0.030100000000000
C       2.518500000000000     -1.558600000000000     -0.023700000000000
C      -1.403100000000000     -1.933400000000000      0.008400000000000
C       3.857200000000000     -0.812000000000000      0.001300000000000
C      -2.858000000000000     -1.459500000000000     -0.035100000000000
C       3.643800000000000      0.703900000000000     -0.015800000000000
C      -3.002600000000000      0.065200000000000     -0.069000000000000
C       4.949900000000000      1.503500000000000     -0.004600000000000
C       4.737500000000000      3.018300000000000     -0.048000000000000
C      -4.460500000000000      0.537400000000000     -0.043900000000000
C       6.068800000000000      3.766200000000000      0.038600000000000
C      -4.578600000000000      2.062400000000000     -0.010900000000000
C       5.862700000000000      5.272600000000000      0.034200000000000
C      -6.009600000000000      2.551200000000000      0.024800000000000
H       0.925500000000000     -5.670500000000000      0.994500000000000
H       0.899300000000000     -5.724700000000000     -0.855900000000000
H       3.284000000000000     -3.388300000000000      0.826300000000000
H       3.229300000000000     -3.383100000000000     -0.936600000000000
H      -1.784900000000000     -3.862600000000000      0.918100000000000
H      -1.791900000000000     -3.889700000000000     -0.841400000000000
H       1.927300000000000     -1.262700000000000      0.852700000000000
H       1.946400000000000     -1.249200000000000     -0.907900000000000
H      -0.870800000000000     -1.536600000000000     -0.865700000000000
H      -0.911900000000000     -1.515200000000000      0.896300000000000
H       4.420200000000000     -1.095000000000000      0.898500000000000
H       4.458400000000000     -1.107800000000000     -0.866600000000000
H      -3.386300000000000     -1.851500000000000      0.842800000000000
H      -3.351500000000000     -1.885400000000000     -0.917300000000000
H       3.067100000000000      0.977000000000000     -0.908300000000000
H       3.039100000000000      0.994200000000000      0.852300000000000
H      -2.510300000000000      0.455100000000000     -0.968400000000000
H      -2.473600000000000      0.491900000000000      0.792200000000000
H       5.516500000000000      1.242100000000000      0.897800000000000
H       5.564100000000000      1.201400000000000     -0.862000000000000
H       4.092300000000000      3.319700000000000      0.786100000000000
H       4.217200000000000      3.290200000000000     -0.974200000000000
H      -4.986500000000000      0.146300000000000     -0.923600000000000
H      -4.965700000000000      0.115600000000000      0.834100000000000
H       6.598400000000000      3.480600000000000      0.954900000000000
H       6.708200000000000      3.486600000000000     -0.806700000000000
H      -4.100800000000000      2.483900000000000     -0.902400000000000
H      -4.070000000000000      2.449900000000000      0.879000000000000
H       6.826800000000000      5.787200000000000      0.095000000000000
H       5.361500000000000      5.597000000000000     -0.883400000000000
H       5.254700000000000      5.588000000000000      0.888000000000000
H      -6.995500000000000      4.233300000000000      0.042600000000000
