52

O       4.797600000000000     -1.782200000000000     -1.513000000000000
O       2.919400000000000     -0.502700000000000     -1.675000000000000
C      -1.505800000000000     -2.528700000000000      0.583800000000000
C      -0.460800000000000     -2.560500000000000      1.702200000000000
C      -2.891500000000000     -2.182400000000000      1.134800000000000
C       0.933700000000000     -2.970500000000000      1.220100000000000
C      -3.988900000000000     -2.161300000000000      0.063400000000000
C       1.538300000000000     -1.991800000000000      0.211700000000000
C      -3.823700000000000     -1.100900000000000     -1.030600000000000
C       2.952800000000000     -2.404700000000000     -0.179600000000000
C       0.710900000000000      2.342300000000000     -0.549300000000000
C       1.279900000000000      3.214600000000000      0.576000000000000
C      -3.743500000000000      0.297600000000000     -0.488800000000000
C      -0.458200000000000      2.944000000000000     -1.337100000000000
C       2.383700000000000      2.527300000000000      1.380600000000000
C       3.519400000000000     -1.456400000000000     -1.200400000000000
C      -2.726000000000000      1.133500000000000     -0.744500000000000
C      -1.633200000000000      3.309300000000000     -0.475700000000000
C      -2.652700000000000      2.476600000000000     -0.217400000000000
C       2.848500000000000      3.397100000000000      2.538900000000000
H      -1.219600000000000     -1.783800000000000     -0.164400000000000
H      -1.541200000000000     -3.502600000000000      0.081600000000000
H      -0.404600000000000     -1.575400000000000      2.181500000000000
H      -0.780400000000000     -3.270400000000000      2.475100000000000
H      -2.855100000000000     -1.218800000000000      1.656500000000000
H      -3.169300000000000     -2.929500000000000      1.889100000000000
H       0.885500000000000     -3.973000000000000      0.777700000000000
H       1.593300000000000     -3.041600000000000      2.093800000000000
H      -4.047500000000000     -3.148800000000000     -0.411000000000000
H      -4.952400000000000     -2.004700000000000      0.565600000000000
H       1.549300000000000     -0.981300000000000      0.638900000000000
H       0.917600000000000     -1.949500000000000     -0.690500000000000
H      -2.948600000000000     -1.337200000000000     -1.647100000000000
H      -4.691000000000000     -1.156000000000000     -1.700100000000000
H       3.602400000000000     -2.394500000000000      0.702400000000000
H       2.946200000000000     -3.411300000000000     -0.611500000000000
H       1.519000000000000      2.115200000000000     -1.256000000000000
H       0.395800000000000      1.379600000000000     -0.126400000000000
H       0.473500000000000      3.493200000000000      1.264800000000000
H       1.665600000000000      4.147600000000000      0.147000000000000
H      -4.576900000000000      0.629500000000000      0.126500000000000
H      -0.732100000000000      2.284800000000000     -2.167100000000000
H      -0.112000000000000      3.866000000000000     -1.823100000000000
H       2.016800000000000      1.572400000000000      1.774700000000000
H       3.234200000000000      2.303200000000000      0.726600000000000
H      -1.915400000000000      0.759500000000000     -1.360300000000000
H      -1.643000000000000      4.302400000000000     -0.034100000000000
H      -3.463000000000000      2.820300000000000      0.419800000000000
H       2.024900000000000      3.605100000000000      3.229500000000000
H       3.244600000000000      4.351600000000000      2.178000000000000
H       3.640800000000000      2.890000000000000      3.098600000000000
H       5.182700000000000     -1.164600000000000     -2.170700000000000
