52

O       5.761900000000000      3.672200000000000      0.102500000000000
O       6.665700000000000      1.663900000000000      0.674100000000000
C       2.785200000000000     -1.767400000000000     -0.231500000000000
C       1.420900000000000     -2.344300000000000     -0.623500000000000
C       2.858200000000000     -0.243500000000000     -0.357800000000000
C       1.356900000000000     -3.871900000000000     -0.519900000000000
C       4.244800000000000      0.278400000000000      0.034700000000000
C      -0.025000000000000     -4.445900000000000     -0.852800000000000
C       4.360800000000000      1.795500000000000     -0.112200000000000
C      -4.039600000000000      1.618900000000000      0.051200000000000
C      -4.246200000000000      3.132700000000000      0.159000000000000
C      -1.105600000000000     -3.956200000000000      0.067700000000000
C      -3.638900000000000      1.018700000000000      1.404200000000000
C      -4.715100000000000      3.775600000000000     -1.148100000000000
C      -2.197800000000000     -3.298100000000000     -0.348500000000000
C      -3.280000000000000     -2.814400000000000      0.572000000000000
C      -3.429400000000000     -0.471200000000000      1.450000000000000
C       5.718200000000000      2.326800000000000      0.279700000000000
C      -3.505700000000000     -1.336500000000000      0.427000000000000
C      -4.989300000000000      5.266700000000000     -1.028000000000000
H       3.012800000000000     -2.056500000000000      0.802100000000000
H       3.558500000000000     -2.219700000000000     -0.864700000000000
H       0.660900000000000     -1.890800000000000      0.023400000000000
H       1.182600000000000     -2.044300000000000     -1.651400000000000
H       2.634000000000000      0.049300000000000     -1.390500000000000
H       2.096400000000000      0.216500000000000      0.283000000000000
H       1.642500000000000     -4.178600000000000      0.494400000000000
H       2.095300000000000     -4.311700000000000     -1.201300000000000
H       5.008700000000000     -0.205100000000000     -0.587300000000000
H       4.462800000000000     -0.005700000000000      1.072000000000000
H       0.020300000000000     -5.539000000000000     -0.776800000000000
H      -0.268300000000000     -4.214900000000000     -1.897200000000000
H       3.611500000000000      2.282200000000000      0.522600000000000
H       4.175600000000000      2.075300000000000     -1.155400000000000
H      -3.264300000000000      1.413900000000000     -0.696900000000000
H      -4.968500000000000      1.153700000000000     -0.301100000000000
H      -4.987600000000000      3.339600000000000      0.941000000000000
H      -3.309500000000000      3.606400000000000      0.478000000000000
H      -0.975800000000000     -4.161500000000000      1.127400000000000
H      -2.713000000000000      1.497200000000000      1.747100000000000
H      -4.411600000000000      1.265100000000000      2.143400000000000
H      -5.630300000000000      3.277500000000000     -1.489900000000000
H      -3.957200000000000      3.613900000000000     -1.923700000000000
H      -2.331100000000000     -3.109800000000000     -1.411600000000000
H      -3.055700000000000     -3.077500000000000      1.612800000000000
H      -4.211000000000000     -3.332000000000000      0.311600000000000
H      -3.178900000000000     -0.861300000000000      2.435100000000000
H      -3.761900000000000     -0.981900000000000     -0.567600000000000
H      -5.773400000000000      5.461100000000000     -0.289400000000000
H      -5.318400000000000      5.671900000000000     -1.989800000000000
H      -4.087200000000000      5.805200000000000     -0.721100000000000
H       6.639100000000000      4.043600000000000      0.336800000000000
