52

O      10.552300000000001      0.131900000000000      0.277800000000000
O       9.357699999999999     -1.629500000000000     -0.526500000000000
C       4.332300000000000      0.020000000000000     -0.150100000000000
C       3.108600000000000      0.919100000000000      0.054900000000000
C       5.686300000000000      0.653500000000000      0.184600000000000
C       1.760900000000000      0.309300000000000     -0.343100000000000
C       6.876200000000000     -0.264700000000000     -0.114000000000000
C      -7.819800000000000     -0.761500000000000      0.000500000000000
C       0.572500000000000      1.234100000000000     -0.070100000000000
C      -6.510500000000000     -0.135400000000000      0.493300000000000
C      -9.011900000000001      0.198300000000000      0.066700000000000
C       8.215600000000000      0.390600000000000      0.225700000000000
C      -5.311000000000000     -1.080500000000000      0.361800000000000
C     -10.301800000000000     -0.397700000000000     -0.498400000000000
C      -0.720000000000000      0.590200000000000     -0.485000000000000
C      -4.015800000000000     -0.443000000000000      0.777000000000000
C     -11.436199999999999      0.615600000000000     -0.477400000000000
C      -1.747700000000000      0.381900000000000      0.351400000000000
C      -2.988300000000000     -0.234800000000000     -0.059700000000000
C       9.400300000000000     -0.497300000000000     -0.069200000000000
H       4.206900000000000     -0.887900000000000      0.453100000000000
H       4.348600000000000     -0.305700000000000     -1.198000000000000
H       3.067400000000000      1.211400000000000      1.111800000000000
H       3.254900000000000      1.844900000000000     -0.515800000000000
H       5.797100000000000      1.582100000000000     -0.388800000000000
H       5.697800000000000      0.932400000000000      1.245300000000000
H       1.623500000000000     -0.632100000000000      0.204500000000000
H       1.790800000000000      0.049900000000000     -1.409300000000000
H       6.770000000000000     -1.196800000000000      0.454900000000000
H       6.864800000000000     -0.544300000000000     -1.174900000000000
H      -8.041000000000000     -1.655800000000000      0.595800000000000
H      -7.687900000000000     -1.095100000000000     -1.036400000000000
H       0.552800000000000      1.504100000000000      0.992600000000000
H       0.694400000000000      2.165800000000000     -0.635000000000000
H      -6.626400000000000      0.168400000000000      1.541400000000000
H      -6.314400000000000      0.779700000000000     -0.080400000000000
H      -8.764300000000000      1.110500000000000     -0.490500000000000
H      -9.174700000000000      0.499100000000000      1.109000000000000
H       8.237700000000000      0.642100000000000      1.292100000000000
H       8.330399999999999      1.311400000000000     -0.357300000000000
H      -5.475700000000000     -1.966800000000000      0.986600000000000
H      -5.245000000000000     -1.437800000000000     -0.673500000000000
H     -10.589399999999999     -1.279500000000000      0.085400000000000
H     -10.136799999999999     -0.730000000000000     -1.529800000000000
H      -0.804600000000000      0.299900000000000     -1.530100000000000
H      -3.935600000000000     -0.146800000000000      1.820700000000000
H     -11.644900000000000      0.949400000000000      0.544000000000000
H     -12.349900000000000      0.169400000000000     -0.882600000000000
H     -11.189800000000000      1.493700000000000     -1.082800000000000
H      -1.660200000000000      0.681400000000000      1.392700000000000
H      -3.075700000000000     -0.534600000000000     -1.101000000000000
H      11.339900000000000     -0.428100000000000      0.109300000000000
