52

O       4.692200000000000      0.118000000000000     -0.879800000000000
O       3.692700000000000     -0.290000000000000      1.123600000000000
C      -1.570500000000000      2.653200000000000      0.019500000000000
C      -0.164200000000000      2.643900000000000     -0.584400000000000
C      -2.606800000000000      2.138200000000000     -0.982400000000000
C       0.261300000000000     -2.998700000000000      0.232100000000000
C      -1.089300000000000     -2.439100000000000     -0.225800000000000
C       1.496800000000000     -2.258900000000000     -0.290700000000000
C       0.867300000000000      3.200500000000000      0.398000000000000
C      -4.038800000000000      2.154400000000000     -0.431900000000000
C      -2.286000000000000     -3.247500000000000      0.289100000000000
C       2.846400000000000     -2.851500000000000      0.123100000000000
C       2.265800000000000      3.222900000000000     -0.218200000000000
C      -4.280600000000000      1.231900000000000      0.764800000000000
C      -3.623900000000000     -2.728400000000000     -0.241700000000000
C       4.040900000000000     -2.103200000000000     -0.465600000000000
C       3.299700000000000      3.748100000000000      0.764800000000000
C      -4.051800000000000     -0.178900000000000      0.425500000000000
C      -3.863100000000000     -1.328400000000000      0.133300000000000
C       4.112100000000000     -0.686600000000000      0.046600000000000
H      -1.569600000000000      2.029400000000000      0.919900000000000
H      -1.834800000000000      3.671800000000000      0.328200000000000
H      -0.155700000000000      3.244100000000000     -1.502400000000000
H       0.109000000000000      1.619200000000000     -0.865000000000000
H      -2.579700000000000      2.771700000000000     -1.878000000000000
H      -2.337600000000000      1.127800000000000     -1.311400000000000
H       0.329000000000000     -4.048800000000000     -0.079200000000000
H       0.290800000000000     -2.998800000000000      1.329000000000000
H      -1.111800000000000     -2.421200000000000     -1.322400000000000
H      -1.160500000000000     -1.398100000000000      0.110400000000000
H       1.446700000000000     -2.235900000000000     -1.386900000000000
H       1.430500000000000     -1.215800000000000      0.040500000000000
H       0.582400000000000      4.216700000000000      0.696300000000000
H       0.875100000000000      2.586800000000000      1.307100000000000
H      -4.299800000000000      3.180400000000000     -0.144200000000000
H      -4.721700000000000      1.876000000000000     -1.245200000000000
H      -2.173100000000000     -4.297000000000000     -0.008400000000000
H      -2.289400000000000     -3.224900000000000      1.386200000000000
H       2.892600000000000     -3.896500000000000     -0.206400000000000
H       2.914200000000000     -2.862700000000000      1.217900000000000
H       2.548600000000000      2.212100000000000     -0.533000000000000
H       2.267800000000000      3.853800000000000     -1.114600000000000
H      -3.653000000000000      1.523500000000000      1.613100000000000
H      -5.319200000000000      1.354400000000000      1.094800000000000
H      -4.431900000000000     -3.356100000000000      0.151300000000000
H      -3.648600000000000     -2.825700000000000     -1.333400000000000
H       3.958200000000000     -2.092600000000000     -1.558400000000000
H       4.974400000000000     -2.607100000000000     -0.194300000000000
H       3.061400000000000      4.769900000000000      1.076700000000000
H       4.291800000000000      3.755900000000000      0.302600000000000
H       3.346800000000000      3.117200000000000      1.658300000000000
H       4.744500000000000      1.048900000000000     -0.574800000000000
