52

O      -7.164000000000000      0.193900000000000      0.891700000000000
O      -5.991000000000000     -0.762500000000000     -0.807200000000000
C      -1.181700000000000      1.312800000000000     -0.341900000000000
C      -0.007400000000000      2.151800000000000      0.172300000000000
C      -2.478000000000000      1.540600000000000      0.439900000000000
C       1.295600000000000      1.904700000000000     -0.595600000000000
C      -3.614600000000000      0.670200000000000     -0.107700000000000
C       2.456100000000000      2.787600000000000     -0.122500000000000
C      -4.916200000000000      0.850200000000000      0.673500000000000
C       2.312100000000000     -2.279700000000000     -0.294500000000000
C       0.879900000000000     -2.617800000000000      0.130600000000000
C       3.736900000000000      2.525900000000000     -0.861500000000000
C       3.219600000000000     -2.088100000000000      0.926700000000000
C      -0.055400000000000     -2.887800000000000     -1.050100000000000
C       4.637900000000000      1.604900000000000     -0.488400000000000
C       4.477000000000000      0.721800000000000      0.714400000000000
C       4.666900000000000     -1.777000000000000      0.654100000000000
C      -6.048600000000000      0.006500000000000      0.140600000000000
C       5.235500000000000     -0.565100000000000      0.557600000000000
C      -1.460500000000000     -3.292800000000000     -0.632100000000000
H      -1.351300000000000      1.544500000000000     -1.400700000000000
H      -0.911100000000000      0.251200000000000     -0.289700000000000
H      -0.270200000000000      3.214600000000000      0.104300000000000
H       0.155900000000000      1.932000000000000      1.234500000000000
H      -2.312900000000000      1.306100000000000      1.498300000000000
H      -2.762600000000000      2.597900000000000      0.381700000000000
H       1.121000000000000      2.084100000000000     -1.664300000000000
H       1.565200000000000      0.847500000000000     -0.498300000000000
H      -3.317100000000000     -0.385200000000000     -0.076300000000000
H      -3.785900000000000      0.913500000000000     -1.163900000000000
H       2.597800000000000      2.674100000000000      0.959000000000000
H       2.191200000000000      3.842400000000000     -0.269100000000000
H      -5.227100000000000      1.900100000000000      0.628200000000000
H      -4.752600000000000      0.574900000000000      1.721600000000000
H       2.313100000000000     -1.371900000000000     -0.908000000000000
H       2.710500000000000     -3.087900000000000     -0.920000000000000
H       0.896500000000000     -3.502900000000000      0.778900000000000
H       0.474400000000000     -1.793700000000000      0.730500000000000
H       3.933400000000000      3.124000000000000     -1.747200000000000
H       2.783900000000000     -1.333500000000000      1.591400000000000
H       3.203300000000000     -3.012900000000000      1.519800000000000
H       0.367800000000000     -3.683000000000000     -1.675200000000000
H      -0.115000000000000     -1.989600000000000     -1.676200000000000
H       5.550500000000000      1.520700000000000     -1.074300000000000
H       3.424200000000000      0.550000000000000      0.940900000000000
H       4.905800000000000      1.244700000000000      1.578600000000000
H       5.311400000000000     -2.642600000000000      0.511700000000000
H       6.304400000000000     -0.505700000000000      0.366900000000000
H      -1.442000000000000     -4.219000000000000     -0.049200000000000
H      -2.088000000000000     -3.456400000000000     -1.513600000000000
H      -1.925200000000000     -2.512800000000000     -0.021300000000000
H      -7.913900000000000     -0.354000000000000      0.575900000000000
