53

O       4.805200000000000     -1.220900000000000      0.312600000000000
N      -1.824700000000000     -1.382300000000000      1.078500000000000
C       0.707000000000000     -0.035100000000000      0.252500000000000
C       0.247000000000000      1.419800000000000      0.183200000000000
C       2.174500000000000     -0.134100000000000     -0.154000000000000
C      -0.139500000000000     -0.963800000000000     -0.636700000000000
C      -0.925700000000000      1.663800000000000      1.142400000000000
C      -0.134400000000000      1.799800000000000     -1.254000000000000
C      -1.630600000000000     -0.933300000000000     -0.306000000000000
C       3.093200000000000      0.375000000000000      0.962600000000000
C       2.550900000000000     -1.574100000000000     -0.520900000000000
C      -1.438600000000000      3.099300000000000      1.052200000000000
C      -0.648400000000000      3.235100000000000     -1.340100000000000
C      -1.808400000000000      3.476100000000000     -0.379000000000000
C      -2.416500000000000     -1.820700000000000     -1.281100000000000
C       4.556400000000000      0.154800000000000      0.598300000000000
C       4.044500000000000     -1.685000000000000     -0.802200000000000
C      -3.897900000000000     -1.865200000000000     -0.916600000000000
C      -3.236800000000000     -1.359600000000000      1.460500000000000
C      -4.077300000000000     -2.249600000000000      0.548000000000000
H       0.645100000000000     -0.386300000000000      1.290200000000000
H       1.048900000000000      2.095000000000000      0.502600000000000
H       2.360500000000000      0.477900000000000     -1.046200000000000
H       0.165300000000000     -2.007000000000000     -0.482100000000000
H       0.023100000000000     -0.765100000000000     -1.703500000000000
H      -1.812300000000000      1.067300000000000      1.018100000000000
H      -0.586800000000000      1.485400000000000      2.171200000000000
H      -0.913600000000000      1.177800000000000     -1.695800000000000
H       0.736300000000000      1.713100000000000     -1.914000000000000
H      -2.063600000000000      0.049900000000000     -0.474600000000000
H       2.878600000000000     -0.175000000000000      1.887900000000000
H       2.938100000000000      1.437600000000000      1.169900000000000
H       2.039700000000000     -1.921600000000000     -1.424200000000000
H       2.302200000000000     -2.246100000000000      0.310400000000000
H      -0.665700000000000      3.785500000000000      1.420400000000000
H      -2.309500000000000      3.226000000000000      1.705800000000000
H      -0.967000000000000      3.454100000000000     -2.365700000000000
H       0.168500000000000      3.929200000000000     -1.106600000000000
H      -2.106700000000000      4.529800000000000     -0.417800000000000
H      -2.675900000000000      2.885800000000000     -0.698900000000000
H      -2.013800000000000     -2.842200000000000     -1.271300000000000
H      -2.306400000000000     -1.447000000000000     -2.306400000000000
H       5.196300000000000      0.440900000000000      1.439200000000000
H       4.849800000000000      0.766100000000000     -0.263300000000000
H       4.314300000000000     -2.731500000000000     -0.976700000000000
H       4.326200000000000     -1.117600000000000     -1.697200000000000
H      -1.293100000000000     -0.823100000000000      1.739400000000000
H      -4.421600000000000     -2.580900000000000     -1.559800000000000
H      -4.349100000000000     -0.881400000000000     -1.095100000000000
H      -3.623300000000000     -0.333700000000000      1.446700000000000
H      -3.328400000000000     -1.719600000000000      2.491100000000000
H      -5.134700000000000     -2.172000000000000      0.824600000000000
H      -3.786200000000000     -3.298500000000000      0.687800000000000
