53

O      -4.792800000000000      0.346700000000000     -0.649600000000000
N      -4.153200000000000     -0.264100000000000     -2.772100000000000
C      -0.477700000000000     -2.003300000000000      0.638700000000000
C       0.535500000000000     -3.027600000000000      1.155400000000000
C      -1.890500000000000     -2.340500000000000      1.120900000000000
C       1.970100000000000     -2.763100000000000      0.682700000000000
C      -2.955900000000000     -1.367900000000000      0.610300000000000
C       2.576900000000000     -1.425100000000000      1.119600000000000
C      -3.032500000000000     -1.301600000000000     -0.914200000000000
C       0.877200000000000      2.715200000000000      0.276500000000000
C      -0.491900000000000      2.397900000000000      0.887100000000000
C       3.997700000000000     -1.249300000000000      0.669300000000000
C       1.148900000000000      1.950300000000000     -1.023800000000000
C      -0.758800000000000      3.152300000000000      2.192000000000000
C       4.342800000000000     -0.690400000000000     -0.500600000000000
C       3.352000000000000     -0.172700000000000     -1.501800000000000
C      -4.085400000000000     -0.322800000000000     -1.396500000000000
C       2.503300000000000      2.240800000000000     -1.606400000000000
C       3.441100000000000      1.300200000000000     -1.803300000000000
C      -2.106800000000000      2.825100000000000      2.815700000000000
H      -0.216600000000000     -1.000200000000000      0.987500000000000
H      -0.427900000000000     -1.998100000000000     -0.454400000000000
H       0.240300000000000     -4.030800000000000      0.823800000000000
H       0.518000000000000     -3.038400000000000      2.252100000000000
H      -1.911700000000000     -2.339800000000000      2.217600000000000
H      -2.153500000000000     -3.356200000000000      0.800500000000000
H       1.993900000000000     -2.834500000000000     -0.412300000000000
H       2.604100000000000     -3.578800000000000      1.054600000000000
H      -3.930800000000000     -1.668400000000000      1.013700000000000
H      -2.751100000000000     -0.367200000000000      1.011600000000000
H       1.958200000000000     -0.582300000000000      0.800700000000000
H       2.569500000000000     -1.376600000000000      2.216400000000000
H      -3.263300000000000     -2.291900000000000     -1.323400000000000
H      -2.079500000000000     -0.969400000000000     -1.339000000000000
H       0.947400000000000      3.794100000000000      0.088200000000000
H       1.658000000000000      2.470900000000000      1.008200000000000
H      -0.561200000000000      1.321200000000000      1.077300000000000
H      -1.277000000000000      2.642400000000000      0.161000000000000
H       4.781000000000000     -1.615400000000000      1.327500000000000
H       0.400800000000000      2.251900000000000     -1.768400000000000
H       0.970900000000000      0.888400000000000     -0.847000000000000
H       0.030900000000000      2.917000000000000      2.915400000000000
H      -0.707200000000000      4.231400000000000      2.004600000000000
H       5.397900000000000     -0.613400000000000     -0.750600000000000
H       3.583700000000000     -0.685900000000000     -2.446700000000000
H       2.333000000000000     -0.496400000000000     -1.292700000000000
H       2.720900000000000      3.268100000000000     -1.886000000000000
H       4.383300000000000      1.630200000000000     -2.239300000000000
H      -2.178400000000000      1.758500000000000      3.051500000000000
H      -2.924100000000000      3.081300000000000      2.134200000000000
H      -2.244900000000000      3.390100000000000      3.742800000000000
H      -4.813000000000000      0.351500000000000     -3.236100000000000
H      -3.556000000000000     -0.826800000000000     -3.369700000000000
