53

O      -4.963800000000000     -0.143800000000000      1.577200000000000
N      -5.705400000000000      1.003900000000000     -0.300400000000000
C       6.231600000000000     -0.378500000000000     -0.284700000000000
C       4.881400000000000     -0.300800000000000      0.436600000000000
C       7.343100000000000      0.388100000000000      0.439700000000000
C       3.718200000000000     -0.963700000000000     -0.311200000000000
C       8.640900000000000      0.375400000000000     -0.372300000000000
C       2.352700000000000     -0.759000000000000      0.348800000000000
C       9.793500000000000      1.110800000000000      0.315000000000000
C       1.205500000000000     -1.443000000000000     -0.404100000000000
C      11.064800000000000      1.161400000000000     -0.518400000000000
C      -8.022100000000000      0.141400000000000     -0.204200000000000
C      -0.131000000000000     -1.261600000000000      0.258000000000000
C      -7.044600000000000      1.258900000000000      0.176800000000000
C      -8.089600000000001      0.000000000000000     -1.725300000000000
C      -9.421600000000000      0.399200000000000      0.358600000000000
C      -1.162000000000000     -0.622700000000000     -0.315300000000000
C      -2.448200000000000     -0.460700000000000      0.326100000000000
C      -4.772300000000000      0.314700000000000      0.455600000000000
C      -3.471300000000000      0.179800000000000     -0.256400000000000
H       6.522100000000000     -1.430300000000000     -0.396200000000000
H       6.115000000000000      0.028200000000000     -1.297000000000000
H       4.632700000000000      0.755300000000000      0.601200000000000
H       4.976400000000000     -0.757700000000000      1.429400000000000
H       7.028700000000000      1.425400000000000      0.605700000000000
H       7.516200000000000     -0.060600000000000      1.425000000000000
H       3.678800000000000     -0.565000000000000     -1.332600000000000
H       3.921200000000000     -2.037900000000000     -0.401100000000000
H       8.941900000000000     -0.662500000000000     -0.561700000000000
H       8.456899999999999      0.835100000000000     -1.351500000000000
H       2.147200000000000      0.316500000000000      0.422700000000000
H       2.392400000000000     -1.141900000000000      1.376500000000000
H      10.014300000000000      0.624500000000000      1.272600000000000
H       9.483300000000000      2.137400000000000      0.544400000000000
H       1.407900000000000     -2.518900000000000     -0.471900000000000
H       1.178300000000000     -1.066900000000000     -1.434500000000000
H      10.889500000000000      1.679000000000000     -1.466800000000000
H      11.852800000000000      1.695700000000000      0.021400000000000
H      11.426200000000000      0.152200000000000     -0.739400000000000
H      -7.658500000000000     -0.808100000000000      0.209000000000000
H      -0.241000000000000     -1.689600000000000      1.251900000000000
H      -7.015900000000000      1.377100000000000      1.266100000000000
H      -7.362100000000000      2.216100000000000     -0.252300000000000
H      -8.401500000000000      0.936800000000000     -2.199700000000000
H      -8.809900000000001     -0.775200000000000     -2.008800000000000
H      -7.121500000000000     -0.289700000000000     -2.146500000000000
H      -9.841799999999999      1.331200000000000     -0.034500000000000
H      -9.390100000000000      0.475700000000000      1.450500000000000
H     -10.103199999999999     -0.417600000000000      0.099000000000000
H      -1.044200000000000     -0.200700000000000     -1.310300000000000
H      -5.459700000000000      1.348400000000000     -1.224100000000000
H      -2.556500000000000     -0.886700000000000      1.320300000000000
H      -3.377700000000000      0.610300000000000     -1.248600000000000
