53

O      -2.711100000000000     -0.576700000000000      1.831200000000000
N      -3.830500000000000     -0.734700000000000     -0.203900000000000
C       1.464200000000000     -0.661800000000000     -0.468500000000000
C       3.795300000000000      0.303700000000000     -0.431500000000000
C       2.767100000000000     -0.480100000000000     -1.245100000000000
C       0.831500000000000      0.698700000000000     -0.146200000000000
C       0.485800000000000     -1.547500000000000     -1.251600000000000
C      -1.468600000000000     -0.345700000000000     -0.192700000000000
C      -0.498800000000000      0.541900000000000      0.587400000000000
C      -0.845200000000000     -1.703000000000000     -0.518900000000000
C       4.108200000000000     -0.418200000000000      0.886200000000000
C       5.074900000000000      0.528900000000000     -1.248300000000000
C       5.174000000000000      0.319300000000000      1.693500000000000
C       6.139200000000000      1.264700000000000     -0.437300000000000
C       6.441000000000000      0.549000000000000      0.875700000000000
C      -2.720100000000000     -0.554900000000000      0.603100000000000
C      -5.155900000000000     -0.977700000000000      0.318000000000000
C      -5.933700000000000      0.312500000000000      0.554500000000000
C      -6.144100000000000      1.116400000000000     -0.730600000000000
C      -6.973100000000000      2.365300000000000     -0.475000000000000
H       1.651000000000000     -1.194300000000000      0.470100000000000
H       3.409700000000000      1.303000000000000     -0.200700000000000
H       2.569200000000000      0.040900000000000     -2.190700000000000
H       3.176500000000000     -1.463400000000000     -1.510700000000000
H       0.672200000000000      1.269600000000000     -1.069700000000000
H       1.478300000000000      1.300700000000000      0.498600000000000
H       0.925200000000000     -2.538900000000000     -1.414300000000000
H       0.302300000000000     -1.115000000000000     -2.243500000000000
H      -1.718200000000000      0.168000000000000     -1.131000000000000
H      -0.301800000000000      0.119900000000000      1.581900000000000
H      -0.945200000000000      1.530200000000000      0.753400000000000
H      -1.530500000000000     -2.296600000000000     -1.136300000000000
H      -0.687600000000000     -2.277700000000000      0.403500000000000
H       3.226300000000000     -0.487100000000000      1.529200000000000
H       4.447200000000000     -1.442400000000000      0.685300000000000
H       5.479500000000000     -0.435300000000000     -1.582000000000000
H       4.846300000000000      1.106900000000000     -2.151900000000000
H       4.775600000000000      1.285300000000000      2.028000000000000
H       5.417100000000000     -0.254900000000000      2.594800000000000
H       7.057700000000000      1.351900000000000     -1.028700000000000
H       5.796900000000000      2.285400000000000     -0.226700000000000
H       6.918200000000000     -0.415800000000000      0.663900000000000
H       7.156400000000000      1.137700000000000      1.460900000000000
H      -3.723800000000000     -0.705100000000000     -1.213600000000000
H      -5.070600000000000     -1.533500000000000      1.258100000000000
H      -5.678200000000000     -1.614400000000000     -0.403900000000000
H      -6.907500000000000      0.060500000000000      0.991400000000000
H      -5.403600000000000      0.933300000000000      1.287500000000000
H      -6.651200000000000      0.495700000000000     -1.478500000000000
H      -5.179300000000000      1.415000000000000     -1.155800000000000
H      -7.111900000000000      2.925100000000000     -1.405200000000000
H      -6.478600000000000      3.023100000000000      0.246900000000000
H      -7.962200000000000      2.106700000000000     -0.083600000000000
