53

O       9.451200000000000      1.029500000000000     -1.136600000000000
N      10.221200000000000      1.101700000000000      1.030500000000000
C      -4.222200000000000     -0.491200000000000      0.223900000000000
C      -2.889200000000000      0.101000000000000     -0.241500000000000
C      -5.397000000000000      0.394500000000000     -0.198500000000000
C      -1.674700000000000     -0.731200000000000      0.182700000000000
C      -6.757600000000000     -0.132700000000000      0.268000000000000
C      -0.348300000000000     -0.178200000000000     -0.344500000000000
C      -7.979700000000000      0.665700000000000     -0.196100000000000
C       0.867700000000000     -1.003300000000000      0.090100000000000
C      -9.311100000000000      0.056300000000000      0.247700000000000
C       2.228300000000000     -0.486200000000000     -0.388500000000000
C     -10.489100000000001      0.940300000000000     -0.164400000000000
C       3.398300000000000     -1.383200000000000      0.022300000000000
C     -11.817600000000001      0.324200000000000      0.244800000000000
C       4.703300000000000     -0.833600000000000     -0.479800000000000
C       5.735500000000000     -0.524100000000000      0.319300000000000
C       6.989300000000000      0.000800000000000     -0.175000000000000
C       8.013999999999999      0.306600000000000      0.632800000000000
C       9.277900000000001      0.843000000000000      0.062800000000000
H      -4.346900000000000     -1.495800000000000     -0.197200000000000
H      -4.215700000000000     -0.595400000000000      1.315400000000000
H      -2.781700000000000      1.116900000000000      0.158300000000000
H      -2.898600000000000      0.190100000000000     -1.335000000000000
H      -5.405600000000000      0.483000000000000     -1.291900000000000
H      -5.254900000000000      1.406700000000000      0.199500000000000
H      -1.800800000000000     -1.760100000000000     -0.176400000000000
H      -1.638100000000000     -0.780100000000000      1.277900000000000
H      -6.760500000000000     -0.177300000000000      1.364500000000000
H      -6.867300000000000     -1.167100000000000     -0.082400000000000
H      -0.381300000000000     -0.139000000000000     -1.440100000000000
H      -0.222900000000000      0.853600000000000      0.005900000000000
H      -7.964400000000000      0.740200000000000     -1.290500000000000
H      -7.898400000000000      1.688800000000000      0.191400000000000
H       0.881700000000000     -1.060000000000000      1.186000000000000
H       0.736800000000000     -2.031500000000000     -0.270600000000000
H      -9.311900000000000     -0.070100000000000      1.337100000000000
H      -9.421200000000001     -0.941400000000000     -0.193900000000000
H       2.205100000000000     -0.392900000000000     -1.482000000000000
H       2.382300000000000      0.525300000000000      0.008900000000000
H     -10.481700000000000      1.087800000000000     -1.250600000000000
H     -10.392700000000000      1.929300000000000      0.298400000000000
H       3.412100000000000     -1.492500000000000      1.113300000000000
H       3.258500000000000     -2.386100000000000     -0.398200000000000
H     -11.870300000000000      0.190900000000000      1.330000000000000
H     -11.959600000000000     -0.652400000000000     -0.229000000000000
H     -12.645500000000000      0.972500000000000     -0.058600000000000
H       4.793300000000000     -0.702900000000000     -1.556100000000000
H       5.642100000000000     -0.664600000000000      1.393200000000000
H       7.071900000000000      0.141200000000000     -1.249800000000000
H       7.948400000000000      0.172600000000000      1.708100000000000
H      10.057499999999999      0.939600000000000      2.019300000000000
H      11.132300000000001      1.471600000000000      0.779900000000000
