53

O      -4.964000000000000      0.144600000000000     -1.577200000000000
N      -5.705200000000000     -1.003900000000000      0.300200000000000
C       6.231500000000000      0.378100000000000      0.284700000000000
C       4.881500000000000      0.300800000000000     -0.436800000000000
C       7.343200000000000     -0.388000000000000     -0.439900000000000
C       3.718100000000000      0.963200000000000      0.311400000000000
C       8.640900000000000     -0.375600000000000      0.372300000000000
C       2.352800000000000      0.759200000000000     -0.348800000000000
C       9.793500000000000     -1.110700000000000     -0.315300000000000
C       1.205700000000000      1.442700000000000      0.404800000000000
C      11.064700000000000     -1.161300000000000      0.518200000000000
C      -8.022000000000000     -0.141600000000000      0.204200000000000
C      -0.131000000000000      1.261900000000000     -0.257300000000000
C      -7.044400000000000     -1.258900000000000     -0.177200000000000
C      -9.421500000000000     -0.399500000000000     -0.358900000000000
C      -8.089700000000001     -0.000800000000000      1.725300000000000
C      -1.162000000000000      0.622700000000000      0.315500000000000
C      -2.448200000000000      0.461200000000000     -0.325900000000000
C      -4.772300000000000     -0.314400000000000     -0.455700000000000
C      -3.471400000000000     -0.179600000000000      0.256300000000000
H       6.522000000000000      1.429700000000000      0.396900000000000
H       6.114800000000000     -0.029300000000000      1.296700000000000
H       4.976500000000000      0.758400000000000     -1.429300000000000
H       4.632700000000000     -0.755100000000000     -0.602100000000000
H       7.028800000000000     -1.425200000000000     -0.606500000000000
H       7.516400000000000      0.061100000000000     -1.425000000000000
H       3.678700000000000      0.563800000000000      1.332500000000000
H       3.921200000000000      2.037400000000000      0.402100000000000
H       8.941700000000001      0.662200000000000      0.562100000000000
H       8.456799999999999     -0.835600000000000      1.351200000000000
H       2.147100000000000     -0.316300000000000     -0.423500000000000
H       2.392400000000000      1.142900000000000     -1.376200000000000
H       9.483400000000000     -2.137100000000000     -0.544900000000000
H      10.014200000000001     -0.624000000000000     -1.272700000000000
H       1.408000000000000      2.518600000000000      0.473300000000000
H       1.178500000000000      1.065900000000000      1.434900000000000
H      11.426000000000000     -0.152100000000000      0.739600000000000
H      11.852700000000000     -1.695400000000000     -0.021700000000000
H      10.889300000000000     -1.679200000000000      1.466400000000000
H      -7.658500000000000      0.808100000000000     -0.208700000000000
H      -0.241000000000000      1.690600000000000     -1.251000000000000
H      -7.361900000000000     -2.216200000000000      0.251600000000000
H      -7.015600000000000     -1.376700000000000     -1.266500000000000
H      -9.841600000000000     -1.331600000000000      0.033900000000000
H     -10.103100000000000      0.417200000000000     -0.099000000000000
H      -9.389900000000001     -0.475500000000000     -1.450800000000000
H      -7.121700000000000      0.288800000000000      2.146700000000000
H      -8.810100000000000      0.774200000000000      2.009100000000000
H      -8.401700000000000     -0.937800000000000      2.199400000000000
H      -1.044200000000000      0.199900000000000      1.310200000000000
H      -5.459400000000000     -1.348800000000000      1.223700000000000
H      -2.556600000000000      0.887700000000000     -1.319800000000000
H      -3.377700000000000     -0.610600000000000      1.248300000000000
