53

O      -4.945800000000000     -1.346800000000000      1.277100000000000
N      -5.696800000000000      0.669100000000000      0.464900000000000
C      -0.320400000000000     -2.231500000000000     -0.998700000000000
C       0.904400000000000     -1.957300000000000     -1.874700000000000
C      -1.340600000000000     -1.096600000000000     -1.114500000000000
C       1.980800000000000     -3.045400000000000     -1.781500000000000
C      -2.577100000000000     -1.298000000000000     -0.235600000000000
C       2.552100000000000     -3.295800000000000     -0.381400000000000
C      -3.581700000000000     -0.151100000000000     -0.333900000000000
C       0.068900000000000      2.896100000000000      0.570200000000000
C       1.135300000000000      3.149300000000000     -0.500400000000000
C       3.248800000000000     -2.096600000000000      0.192100000000000
C       0.650600000000000      2.371000000000000      1.887600000000000
C       0.553900000000000      3.662100000000000     -1.820300000000000
C       2.876900000000000     -1.495700000000000      1.332600000000000
C       3.562700000000000     -0.288000000000000      1.901000000000000
C      -4.791300000000000     -0.366600000000000      0.554600000000000
C       1.407100000000000      1.082600000000000      1.725800000000000
C       2.707500000000000      0.945000000000000      2.030500000000000
C       1.604500000000000      3.894300000000000     -2.895300000000000
H      -0.783800000000000     -3.179600000000000     -1.295500000000000
H      -0.026600000000000     -2.326600000000000      0.051800000000000
H       1.339800000000000     -0.986900000000000     -1.606600000000000
H       0.586700000000000     -1.874600000000000     -2.921600000000000
H      -1.656800000000000     -0.999000000000000     -2.160500000000000
H      -0.859300000000000     -0.149700000000000     -0.840700000000000
H       2.799100000000000     -2.781900000000000     -2.464100000000000
H       1.561100000000000     -3.987700000000000     -2.155600000000000
H      -3.068500000000000     -2.238600000000000     -0.514900000000000
H      -2.259900000000000     -1.413100000000000      0.808700000000000
H       1.767300000000000     -3.660800000000000      0.290500000000000
H       3.287800000000000     -4.107000000000000     -0.450000000000000
H      -3.927900000000000     -0.045700000000000     -1.368700000000000
H      -3.102900000000000      0.790600000000000     -0.040300000000000
H      -0.473800000000000      3.827800000000000      0.771000000000000
H      -0.667700000000000      2.179500000000000      0.186300000000000
H       1.685800000000000      2.224000000000000     -0.707700000000000
H       1.864400000000000      3.875400000000000     -0.120300000000000
H       4.093100000000000     -1.704700000000000     -0.369600000000000
H      -0.170500000000000      2.202000000000000      2.594500000000000
H       1.289300000000000      3.144900000000000      2.330900000000000
H      -0.182600000000000      2.941800000000000     -2.196500000000000
H       0.017100000000000      4.601000000000000     -1.639900000000000
H       2.041000000000000     -1.901800000000000      1.897900000000000
H       3.940700000000000     -0.548000000000000      2.897200000000000
H       4.438900000000000     -0.026900000000000      1.294600000000000
H       0.838100000000000      0.241300000000000      1.341000000000000
H       3.235300000000000      1.815200000000000      2.417700000000000
H       2.134500000000000      2.965700000000000     -3.129800000000000
H       2.339600000000000      4.636300000000000     -2.568200000000000
H       1.134900000000000      4.260500000000000     -3.813500000000000
H      -6.554600000000000      0.660600000000000      1.006600000000000
H      -5.546000000000000      1.471000000000000     -0.138800000000000
