54

N       2.588000000000000     -1.155400000000000     -0.336000000000000
N       6.865300000000000      1.183400000000000     -1.048200000000000
C      -1.908400000000000     -3.167000000000000     -0.203100000000000
C      -3.125400000000000     -2.241800000000000     -0.277900000000000
C      -0.750200000000000     -2.516000000000000      0.518500000000000
C      -3.017800000000000      1.412200000000000     -1.807800000000000
C      -3.339400000000000      0.224600000000000     -0.924600000000000
C      -2.819400000000000     -1.008700000000000     -1.080800000000000
C       1.676200000000000     -1.731100000000000      0.646900000000000
C      -2.504000000000000      2.637000000000000     -1.039300000000000
C       0.476400000000000     -2.345500000000000     -0.012500000000000
C       3.751900000000000     -0.572500000000000      0.315500000000000
C       4.736700000000000      0.020500000000000     -0.694600000000000
C      -1.040200000000000     -2.069400000000000      1.927100000000000
C      -4.353800000000000      0.483900000000000      0.159200000000000
C       5.978300000000000      0.623000000000000     -0.034700000000000
C      -1.172200000000000      2.392600000000000     -0.385600000000000
C      -0.837700000000000      2.556400000000000      0.908100000000000
C      -1.767200000000000      3.014600000000000      1.995400000000000
C       0.562800000000000      2.259400000000000      1.374400000000000
H      -1.610300000000000     -3.476300000000000     -1.213200000000000
H      -2.186200000000000     -4.085100000000000      0.329300000000000
H      -3.933900000000000     -2.784800000000000     -0.782500000000000
H      -3.478900000000000     -2.005200000000000      0.730200000000000
H      -2.283600000000000      1.127200000000000     -2.572600000000000
H      -3.928100000000000      1.694400000000000     -2.352000000000000
H      -2.131300000000000     -1.150000000000000     -1.913800000000000
H       1.370100000000000     -0.949800000000000      1.350700000000000
H       2.194500000000000     -2.520300000000000      1.204400000000000
H      -3.264900000000000      2.984800000000000     -0.336800000000000
H      -2.369100000000000      3.455000000000000     -1.758700000000000
H       3.439300000000000      0.216400000000000      1.011000000000000
H       4.272900000000000     -1.340500000000000      0.900300000000000
H       0.634100000000000     -2.724700000000000     -1.022000000000000
H       4.226600000000000      0.794600000000000     -1.283500000000000
H       5.043400000000000     -0.763000000000000     -1.400500000000000
H       2.104700000000000     -0.430000000000000     -0.866300000000000
H      -0.144000000000000     -1.991500000000000      2.549100000000000
H      -1.690400000000000     -2.794500000000000      2.429500000000000
H      -1.542800000000000     -1.096900000000000      1.927700000000000
H      -3.869500000000000      0.905200000000000      1.045000000000000
H      -4.906400000000000     -0.411000000000000      0.458200000000000
H      -5.110000000000000      1.195900000000000     -0.190400000000000
H       6.513500000000000     -0.144300000000000      0.535100000000000
H       5.685500000000000      1.414900000000000      0.662800000000000
H      -0.394500000000000      2.058300000000000     -1.072100000000000
H      -1.868700000000000      2.232100000000000      2.754900000000000
H      -1.364800000000000      3.911400000000000      2.478600000000000
H      -2.770700000000000      3.262000000000000      1.645800000000000
H       1.017800000000000      3.157400000000000      1.804700000000000
H       0.548900000000000      1.475600000000000      2.139000000000000
H       1.210700000000000      1.916400000000000      0.560800000000000
H       7.165800000000000      0.447600000000000     -1.686200000000000
H       7.710200000000000      1.535300000000000     -0.599900000000000
