54

N      -1.302500000000000     -0.015300000000000      0.716800000000000
N       1.309200000000000     -0.028500000000000     -0.714400000000000
C      -0.767700000000000     -1.181200000000000      0.009100000000000
C       0.776100000000000     -1.191900000000000     -0.001800000000000
C      -1.319200000000000     -2.450800000000000      0.673900000000000
C       1.309700000000000     -2.467900000000000     -0.668800000000000
C      -2.670100000000000      0.266900000000000      0.285100000000000
C       2.675800000000000      0.258700000000000     -0.282800000000000
C      -0.776000000000000     -3.714200000000000      0.010800000000000
C       0.748500000000000     -3.724800000000000     -0.008700000000000
C      -3.380800000000000      1.127500000000000      1.335600000000000
C      -2.652200000000000      0.963500000000000     -1.079900000000000
C       2.655000000000000      0.964300000000000      1.077500000000000
C       3.386400000000000      1.113500000000000     -1.338100000000000
C      -4.789700000000000      1.507500000000000      0.883200000000000
C      -4.062200000000000      1.343000000000000     -1.529400000000000
C       4.063800000000000      1.349100000000000      1.526200000000000
C       4.794100000000000      1.498800000000000     -0.886500000000000
C      -4.777600000000000      2.190700000000000     -0.481400000000000
C       4.779200000000000      2.191000000000000      0.473500000000000
H      -1.084700000000000     -1.190700000000000     -1.040800000000000
H       1.097300000000000     -1.203100000000000      1.046600000000000
H      -1.048400000000000     -2.463600000000000      1.738400000000000
H      -2.412100000000000     -2.497000000000000      0.630000000000000
H       1.039000000000000     -2.480000000000000     -1.733300000000000
H       2.402300000000000     -2.525200000000000     -0.623900000000000
H      -3.258700000000000     -0.652800000000000      0.193100000000000
H       3.264400000000000     -0.661100000000000     -0.186000000000000
H      -0.712700000000000      0.798400000000000      0.543400000000000
H       1.278100000000000     -0.195700000000000     -1.719500000000000
H      -1.142400000000000     -4.597600000000000      0.545900000000000
H      -1.156700000000000     -3.781600000000000     -1.015800000000000
H       1.102600000000000     -4.612300000000000     -0.545400000000000
H       1.128000000000000     -3.799700000000000      1.017800000000000
H      -2.806900000000000      2.044400000000000      1.524800000000000
H      -3.440500000000000      0.587600000000000      2.288700000000000
H      -2.212000000000000      0.333800000000000     -1.859400000000000
H      -2.041300000000000      1.875100000000000     -1.031000000000000
H       2.214500000000000      0.338600000000000      1.860200000000000
H       2.040000000000000      1.872500000000000      1.019100000000000
H       2.810900000000000      2.028000000000000     -1.534300000000000
H       3.451300000000000      0.568500000000000     -2.288000000000000
H      -5.247300000000000      2.172700000000000      1.624100000000000
H      -5.413200000000000      0.606300000000000      0.834900000000000
H      -4.642200000000000      0.431800000000000     -1.720900000000000
H      -4.011600000000000      1.894200000000000     -2.475300000000000
H       4.645100000000000      0.440200000000000      1.724600000000000
H       4.011000000000000      1.906500000000000      2.468300000000000
H       5.251500000000000      2.159900000000000     -1.631200000000000
H       5.419100000000000      0.599000000000000     -0.831500000000000
H      -5.806100000000000      2.386500000000000     -0.804800000000000
H      -4.278300000000000      3.163800000000000     -0.397100000000000
H       5.807000000000000      2.390600000000000      0.796900000000000
H       4.278400000000000      3.162700000000000      0.382200000000000
