54

N       0.274300000000000     -2.499000000000000      0.091200000000000
N      -3.720600000000000     -2.211000000000000     -1.419500000000000
C       4.019600000000000      0.517100000000000      0.427400000000000
C       3.416100000000000      1.685600000000000     -0.365800000000000
C       2.989300000000000     -0.400900000000000      1.048000000000000
C       0.316200000000000      2.161900000000000     -0.773700000000000
C       1.247300000000000      1.444400000000000     -1.729100000000000
C       2.560400000000000      1.227900000000000     -1.515400000000000
C      -0.808800000000000      1.298800000000000     -0.182400000000000
C       1.428300000000000     -2.432400000000000      0.984200000000000
C       2.473700000000000     -1.495500000000000      0.454700000000000
C      -0.736800000000000     -3.402200000000000      0.619800000000000
C      -1.927700000000000     -3.483700000000000     -0.334600000000000
C       2.513300000000000      0.008700000000000      2.418500000000000
C       0.597500000000000      0.879800000000000     -2.968200000000000
C      -2.574700000000000     -2.112000000000000     -0.523300000000000
C      -1.612700000000000      2.007900000000000      0.871700000000000
C      -2.946600000000000      2.187500000000000      0.920400000000000
C      -3.572900000000000      2.932300000000000      2.069700000000000
C      -3.935100000000000      1.685100000000000     -0.093400000000000
H       4.664400000000000     -0.070600000000000     -0.240400000000000
H       4.686600000000000      0.905900000000000      1.207000000000000
H       2.878400000000000      2.346300000000000      0.318800000000000
H       4.236900000000000      2.286100000000000     -0.777600000000000
H      -0.133100000000000      3.006800000000000     -1.313600000000000
H       0.872400000000000      2.618400000000000      0.050200000000000
H       3.111600000000000      0.670400000000000     -2.272700000000000
H      -1.441800000000000      0.937100000000000     -0.994800000000000
H      -0.365600000000000      0.412400000000000      0.286800000000000
H       1.104500000000000     -2.161000000000000      1.992400000000000
H       1.888600000000000     -3.425700000000000      1.062000000000000
H      -1.084300000000000     -3.055500000000000      1.600500000000000
H      -0.322100000000000     -4.409100000000000      0.748900000000000
H       2.853900000000000     -1.748700000000000     -0.535000000000000
H      -2.661800000000000     -4.188900000000000      0.074900000000000
H      -1.603300000000000     -3.886800000000000     -1.302800000000000
H       0.571700000000000     -2.826800000000000     -0.828000000000000
H       2.642600000000000      1.087200000000000      2.564300000000000
H       1.448100000000000     -0.181400000000000      2.575800000000000
H       3.093900000000000     -0.504600000000000      3.191200000000000
H      -0.093800000000000      0.071900000000000     -2.709200000000000
H       0.041100000000000      1.663200000000000     -3.493300000000000
H       1.329500000000000      0.472400000000000     -3.673800000000000
H      -1.864100000000000     -1.404000000000000     -0.958300000000000
H      -2.905900000000000     -1.710200000000000      0.440200000000000
H      -1.016200000000000      2.408700000000000      1.690700000000000
H      -4.114700000000000      3.810100000000000      1.702100000000000
H      -4.278400000000000      2.285300000000000      2.601500000000000
H      -2.831000000000000      3.281100000000000      2.795700000000000
H      -4.637600000000000      0.990900000000000      0.380000000000000
H      -4.506600000000000      2.523100000000000     -0.506600000000000
H      -3.479000000000000      1.161300000000000     -0.934800000000000
H      -3.415700000000000     -2.550300000000000     -2.331000000000000
H      -4.109000000000000     -1.281800000000000     -1.575700000000000
