54

N       1.664800000000000     -0.018700000000000      0.548900000000000
N      -2.569100000000000     -0.069100000000000      0.148700000000000
C      -1.250000000000000     -0.135200000000000      0.780900000000000
C       3.033400000000000     -0.055300000000000      1.063700000000000
C      -0.498800000000000      1.183300000000000      0.578200000000000
C      -0.428300000000000     -1.296900000000000      0.214700000000000
C       0.920500000000000      1.098900000000000      1.146100000000000
C       0.988700000000000     -1.300200000000000      0.794100000000000
C       3.825800000000000      1.223200000000000      0.763900000000000
C       3.776900000000000     -1.332300000000000      0.650100000000000
C      -3.379600000000000      1.008600000000000      0.718100000000000
C      -3.206800000000000     -1.389600000000000      0.188200000000000
C       3.793100000000000      1.771800000000000     -0.661800000000000
C       4.018500000000000     -1.550900000000000     -0.840300000000000
C       3.966400000000000      0.793600000000000     -1.820000000000000
C       4.808500000000000     -0.442600000000000     -1.532300000000000
C      -4.234800000000000      1.670000000000000     -0.366400000000000
C      -4.691000000000000     -1.464200000000000     -0.182800000000000
C      -5.430500000000000      0.860100000000000     -0.858600000000000
C      -5.107800000000000     -0.554400000000000     -1.333700000000000
H      -1.370200000000000     -0.299300000000000      1.862100000000000
H       2.982100000000000     -0.114900000000000      2.162500000000000
H      -0.959200000000000      2.039600000000000      1.075100000000000
H      -0.445200000000000      1.427300000000000     -0.491900000000000
H      -0.371800000000000     -1.230800000000000     -0.880500000000000
H      -0.863700000000000     -2.270700000000000      0.465800000000000
H       1.392900000000000      2.062100000000000      0.933400000000000
H       0.871000000000000      0.996900000000000      2.238600000000000
H       0.949900000000000     -1.529300000000000      1.867300000000000
H       1.480500000000000     -2.135400000000000      0.288900000000000
H       4.876200000000000      1.048700000000000      1.035600000000000
H       3.507600000000000      2.026200000000000      1.442000000000000
H       3.329400000000000     -2.231400000000000      1.089400000000000
H       4.767000000000000     -1.296600000000000      1.129300000000000
H      -2.813400000000000      1.817500000000000      1.178100000000000
H      -4.012400000000000      0.637100000000000      1.535200000000000
H      -3.098000000000000     -1.853100000000000      1.178200000000000
H      -2.706200000000000     -2.040100000000000     -0.539200000000000
H       4.590200000000000      2.524400000000000     -0.732800000000000
H       2.864400000000000      2.331800000000000     -0.825200000000000
H       3.071400000000000     -1.719900000000000     -1.364900000000000
H       4.588500000000000     -2.483200000000000     -0.945700000000000
H       4.420700000000000      1.342700000000000     -2.655000000000000
H       2.976700000000000      0.484800000000000     -2.180000000000000
H       5.149300000000000     -0.840700000000000     -2.496800000000000
H       5.712600000000000     -0.186200000000000     -0.968800000000000
H      -3.599000000000000      1.934800000000000     -1.221500000000000
H      -4.616200000000000      2.621300000000000      0.026900000000000
H      -5.306000000000000     -1.253600000000000      0.701100000000000
H      -4.913000000000000     -2.502800000000000     -0.460800000000000
H      -5.896500000000000      1.408200000000000     -1.686900000000000
H      -6.185000000000000      0.814200000000000     -0.063100000000000
H      -6.019700000000000     -0.968300000000000     -1.782000000000000
H      -4.348300000000000     -0.539800000000000     -2.123900000000000
