54

N       4.542900000000000     -0.290100000000000     -0.646800000000000
N       5.385300000000000     -0.512300000000000     -1.376200000000000
C      -4.052700000000000      0.252400000000000     -0.370500000000000
C      -2.921900000000000      0.936000000000000     -1.146800000000000
C      -3.628400000000000     -1.074400000000000      0.273500000000000
C      -2.994000000000000      2.464900000000000     -1.145400000000000
C      -2.966400000000000     -2.057300000000000     -0.696700000000000
C      -2.704500000000000      3.134200000000000      0.206700000000000
C      -2.448600000000000     -3.335400000000000     -0.027900000000000
C      -1.467100000000000      2.628300000000000      0.958200000000000
C      -1.467800000000000     -3.143000000000000      1.137000000000000
C      -0.161100000000000      2.758000000000000      0.168900000000000
C      -0.317600000000000     -2.155900000000000      0.909700000000000
C       0.993000000000000      2.065100000000000      0.899200000000000
C       0.638700000000000     -2.555900000000000     -0.214900000000000
C       2.295300000000000      2.149300000000000      0.097300000000000
C       1.647100000000000     -1.450900000000000     -0.552600000000000
C       3.435500000000000      1.365300000000000      0.747300000000000
C       2.629000000000000     -1.146200000000000      0.578700000000000
C       3.563300000000000     -0.031900000000000      0.201300000000000
H      -4.429800000000000      0.903100000000000      0.425800000000000
H      -4.895600000000000      0.076100000000000     -1.049900000000000
H      -2.963900000000000      0.591400000000000     -2.188100000000000
H      -1.945000000000000      0.620200000000000     -0.768500000000000
H      -4.510000000000000     -1.547300000000000      0.723000000000000
H      -2.950700000000000     -0.838700000000000      1.100500000000000
H      -3.981500000000000      2.787000000000000     -1.497800000000000
H      -2.273800000000000      2.842300000000000     -1.881900000000000
H      -2.132200000000000     -1.583400000000000     -1.223200000000000
H      -3.692700000000000     -2.336800000000000     -1.469900000000000
H      -3.575400000000000      3.008600000000000      0.861200000000000
H      -2.605700000000000      4.214500000000000      0.042000000000000
H      -1.971100000000000     -3.955200000000000     -0.796700000000000
H      -3.304200000000000     -3.917500000000000      0.337200000000000
H      -1.624000000000000      1.585400000000000      1.257700000000000
H      -1.373500000000000      3.196900000000000      1.892100000000000
H      -1.051700000000000     -4.122600000000000      1.404200000000000
H      -2.032000000000000     -2.809800000000000      2.017100000000000
H       0.072500000000000      3.818600000000000      0.018600000000000
H      -0.264300000000000      2.308200000000000     -0.823900000000000
H       0.243100000000000     -2.084200000000000      1.849200000000000
H      -0.714300000000000     -1.154000000000000      0.716500000000000
H       0.727800000000000      1.017800000000000      1.074500000000000
H       1.137400000000000      2.527800000000000      1.883000000000000
H       0.072200000000000     -2.777300000000000     -1.126000000000000
H       1.169800000000000     -3.475000000000000      0.059500000000000
H       2.587100000000000      3.205200000000000      0.034900000000000
H       2.130400000000000      1.804300000000000     -0.930400000000000
H       1.107100000000000     -0.541200000000000     -0.841000000000000
H       2.210000000000000     -1.760400000000000     -1.442600000000000
H       3.324200000000000      1.314100000000000      1.835700000000000
H       4.377100000000000      1.892100000000000      0.547300000000000
H       3.224400000000000     -2.039200000000000      0.802800000000000
H       2.111100000000000     -0.862400000000000      1.499100000000000
