54

N       0.540800000000000      1.595300000000000     -0.503000000000000
N      -0.478200000000000     -1.076400000000000     -0.574100000000000
C       2.342800000000000     -0.640800000000000      0.151200000000000
C       1.202100000000000     -0.230700000000000      1.101900000000000
C       1.843500000000000     -0.412300000000000     -1.282900000000000
C       3.761200000000000     -0.049200000000000      0.469400000000000
C       3.001000000000000     -2.040700000000000      0.416400000000000
C       4.061100000000000     -1.326500000000000      1.271200000000000
C       0.892600000000000      1.271300000000000      0.887600000000000
C       1.535700000000000      1.092900000000000     -1.462000000000000
C      -0.025300000000000     -1.132900000000000      0.823800000000000
C       0.615500000000000     -1.320500000000000     -1.525800000000000
C       0.324300000000000      3.029900000000000     -0.671100000000000
C      -1.591900000000000     -1.992700000000000     -0.804500000000000
C      -0.790200000000000      3.510700000000000      0.256700000000000
C      -2.784900000000000     -1.608100000000000      0.068900000000000
C      -2.111400000000000      2.807400000000000     -0.056100000000000
C      -3.970700000000000     -2.542900000000000     -0.172600000000000
C      -3.217600000000000      3.254600000000000      0.886400000000000
C      -5.150400000000000     -2.188600000000000      0.718700000000000
H       1.502600000000000     -0.373100000000000      2.147600000000000
H       2.621600000000000     -0.689800000000000     -2.005600000000000
H       4.407700000000000      0.066800000000000     -0.409400000000000
H       3.801400000000000      0.876700000000000      1.048200000000000
H       2.403900000000000     -2.783600000000000      0.950800000000000
H       3.421500000000000     -2.516800000000000     -0.478100000000000
H       5.079700000000000     -1.713100000000000      1.184500000000000
H       3.799800000000000     -1.255100000000000      2.333000000000000
H       0.067000000000000      1.498300000000000      1.569200000000000
H       1.753000000000000      1.870600000000000      1.210100000000000
H       2.469200000000000      1.663200000000000     -1.366800000000000
H       1.166400000000000      1.250600000000000     -2.482900000000000
H       0.209600000000000     -2.166700000000000      1.105600000000000
H      -0.805000000000000     -0.779600000000000      1.505100000000000
H       0.253800000000000     -1.145000000000000     -2.546700000000000
H       0.930400000000000     -2.371000000000000     -1.473100000000000
H       1.240400000000000      3.597500000000000     -0.463700000000000
H       0.038100000000000      3.246000000000000     -1.708100000000000
H      -1.297100000000000     -3.031700000000000     -0.608700000000000
H      -1.902100000000000     -1.936500000000000     -1.855600000000000
H      -0.925500000000000      4.586700000000000      0.082500000000000
H      -0.529500000000000      3.429100000000000      1.316700000000000
H      -3.085100000000000     -0.573000000000000     -0.134900000000000
H      -2.548000000000000     -1.680400000000000      1.134600000000000
H      -2.411000000000000      3.018300000000000     -1.089400000000000
H      -2.011000000000000      1.721200000000000      0.035700000000000
H      -4.282200000000000     -2.484800000000000     -1.222000000000000
H      -3.674300000000000     -3.580400000000000      0.021200000000000
H      -2.965800000000000      3.020000000000000      1.925500000000000
H      -3.387500000000000      4.333100000000000      0.808200000000000
H      -4.154200000000000      2.744200000000000      0.640700000000000
H      -5.489900000000000     -1.164800000000000      0.531300000000000
H      -4.883500000000000     -2.274000000000000      1.776900000000000
H      -5.988500000000000     -2.865300000000000      0.524700000000000
