54

N       0.825300000000000      2.542300000000000     -0.005600000000000
N       0.371200000000000      2.887300000000000     -2.151800000000000
C       1.960400000000000     -3.221500000000000      0.155200000000000
C       1.060600000000000     -3.701800000000000     -0.988000000000000
C       2.716200000000000     -1.913900000000000     -0.100500000000000
C      -0.101500000000000     -2.773800000000000     -1.356200000000000
C       3.530300000000000     -1.436300000000000      1.104700000000000
C      -1.068900000000000     -2.432100000000000     -0.219400000000000
C       4.295000000000000     -0.132800000000000      0.843400000000000
C      -2.252200000000000     -1.569300000000000     -0.664200000000000
C       3.428900000000000      1.094500000000000      0.540700000000000
C      -3.130800000000000     -1.183800000000000      0.529000000000000
C       2.396800000000000      1.394500000000000      1.632700000000000
C      -4.349800000000000     -0.342200000000000      0.140500000000000
C       1.541100000000000      2.628100000000000      1.319800000000000
C      -5.187200000000000      0.104700000000000      1.339500000000000
C      -6.342000000000000      0.995800000000000      0.907700000000000
C      -0.317000000000000      1.838300000000000     -0.264200000000000
C       1.201100000000000      3.155400000000000     -1.168400000000000
C      -0.577500000000000      2.066600000000000     -1.594900000000000
H       1.365600000000000     -3.125800000000000      1.071200000000000
H       2.697000000000000     -4.009400000000000      0.358600000000000
H       1.675500000000000     -3.864700000000000     -1.881600000000000
H       0.649400000000000     -4.681000000000000     -0.712300000000000
H       3.379100000000000     -2.043200000000000     -0.964500000000000
H       1.991600000000000     -1.138100000000000     -0.368100000000000
H       0.297200000000000     -1.843500000000000     -1.778600000000000
H      -0.668300000000000     -3.251700000000000     -2.165500000000000
H       2.882400000000000     -1.332800000000000      1.981700000000000
H       4.262100000000000     -2.213100000000000      1.360700000000000
H      -1.444300000000000     -3.361500000000000      0.225900000000000
H      -0.524200000000000     -1.898000000000000      0.568000000000000
H       4.911100000000000      0.084000000000000      1.725000000000000
H       4.992300000000000     -0.284800000000000      0.010300000000000
H      -2.850500000000000     -2.121400000000000     -1.398700000000000
H      -1.887500000000000     -0.665700000000000     -1.162400000000000
H       4.087400000000000      1.963500000000000      0.419400000000000
H       2.936400000000000      0.942600000000000     -0.425100000000000
H      -3.474000000000000     -2.093300000000000      1.037400000000000
H      -2.526800000000000     -0.625200000000000      1.254700000000000
H       1.722000000000000      0.539700000000000      1.751100000000000
H       2.902900000000000      1.544600000000000      2.593200000000000
H      -4.979400000000000     -0.917000000000000     -0.549900000000000
H      -4.006800000000000      0.544100000000000     -0.408100000000000
H       0.755100000000000      2.769900000000000      2.069500000000000
H       2.151000000000000      3.537000000000000      1.271700000000000
H      -5.580300000000000     -0.773100000000000      1.864900000000000
H      -4.556700000000000      0.653100000000000      2.048900000000000
H      -5.975900000000000      1.899400000000000      0.410000000000000
H      -6.929800000000000      1.302300000000000      1.778600000000000
H      -7.007400000000000      0.468000000000000      0.217100000000000
H      -0.825600000000000      1.258700000000000      0.492900000000000
H       2.081900000000000      3.778800000000000     -1.238700000000000
H      -1.400400000000000      1.683200000000000     -2.180200000000000
