54

N       2.321400000000000      0.760800000000000     -0.803200000000000
N      -2.424500000000000      0.411200000000000     -0.087900000000000
C      -0.888400000000000     -1.356600000000000     -0.718000000000000
C       1.071800000000000     -2.588600000000000      0.574000000000000
C      -0.200100000000000     -2.685300000000000     -0.308800000000000
C       0.159900000000000     -0.330500000000000     -1.197200000000000
C       2.024500000000000     -1.501200000000000      0.034000000000000
C       1.332200000000000     -0.163200000000000     -0.228300000000000
C      -1.744500000000000     -0.770400000000000      0.419500000000000
C      -1.852500000000000     -1.656200000000000     -1.889200000000000
C       1.800400000000000     -3.951300000000000      0.517000000000000
C       0.734500000000000     -2.330100000000000      2.053900000000000
C       2.963300000000000      1.422400000000000      0.090700000000000
C      -3.557200000000000      0.637000000000000      0.486300000000000
C       4.018300000000000      2.422800000000000     -0.317600000000000
C      -4.404300000000000      1.820700000000000      0.084200000000000
C       5.360800000000000      1.996100000000000      0.262100000000000
C       3.615100000000000      3.805200000000000      0.178800000000000
C      -4.585800000000000      2.735900000000000      1.288200000000000
C      -5.744900000000000      1.321200000000000     -0.438700000000000
H       0.091400000000000     -3.198600000000000     -1.237200000000000
H      -0.933100000000000     -3.350100000000000      0.168200000000000
H      -0.292700000000000      0.648500000000000     -1.398100000000000
H       0.562300000000000     -0.659500000000000     -2.166600000000000
H       2.478700000000000     -1.849600000000000     -0.904700000000000
H       2.861000000000000     -1.361300000000000      0.731800000000000
H       0.938300000000000      0.246200000000000      0.709700000000000
H      -1.140100000000000     -0.464100000000000      1.272600000000000
H      -2.448200000000000     -1.534800000000000      0.776300000000000
H      -1.324800000000000     -2.145200000000000     -2.716700000000000
H      -2.660600000000000     -2.327100000000000     -1.575800000000000
H      -2.305400000000000     -0.748800000000000     -2.303400000000000
H       2.719300000000000     -3.936400000000000      1.114100000000000
H       1.162800000000000     -4.755400000000000      0.901800000000000
H       2.081300000000000     -4.211800000000000     -0.509800000000000
H       1.612700000000000     -2.502200000000000      2.688200000000000
H       0.420400000000000     -1.305700000000000      2.253300000000000
H      -0.056200000000000     -3.003000000000000      2.403300000000000
H       2.788800000000000      1.299200000000000      1.175700000000000
H      -3.954800000000000     -0.010000000000000      1.289900000000000
H       4.087600000000000      2.439400000000000     -1.411800000000000
H      -3.888900000000000      2.370200000000000     -0.712300000000000
H       5.331100000000000      1.959100000000000      1.356900000000000
H       5.635900000000000      0.996400000000000     -0.091900000000000
H       6.152800000000000      2.691300000000000     -0.034700000000000
H       2.643900000000000      4.097800000000000     -0.235200000000000
H       3.526100000000000      3.828800000000000      1.270800000000000
H       4.352100000000000      4.557600000000000     -0.120000000000000
H      -5.090600000000000      2.219100000000000      2.112200000000000
H      -3.615800000000000      3.080500000000000      1.663200000000000
H      -5.179500000000000      3.616700000000000      1.022900000000000
H      -5.602400000000000      0.655100000000000     -1.296700000000000
H      -6.288900000000000      0.757000000000000      0.327200000000000
H      -6.375100000000000      2.157300000000000     -0.758800000000000
