54

N      -2.718700000000000     -0.201600000000000     -0.073400000000000
N       2.410100000000000     -0.771200000000000      0.525700000000000
C      -4.072400000000000      0.135000000000000      0.329200000000000
C       0.000100000000000     -1.212500000000000      0.352400000000000
C      -2.477900000000000     -1.641900000000000      0.086700000000000
C      -1.743500000000000      0.587200000000000      0.691400000000000
C      -1.072600000000000     -2.022300000000000     -0.383900000000000
C      -0.313200000000000      0.283400000000000      0.241000000000000
C      -5.129000000000000     -0.504400000000000     -0.563500000000000
C      -4.378400000000000      1.620800000000000      0.183500000000000
C      -6.387600000000000      0.308500000000000     -0.271200000000000
C      -5.903500000000000      1.678700000000000      0.211300000000000
C       1.391800000000000     -1.523600000000000     -0.191300000000000
C       3.742300000000000     -1.060300000000000     -0.000100000000000
C       3.959200000000000     -0.480200000000000     -1.403000000000000
C       4.865500000000000     -0.693500000000000      0.979800000000000
C       3.580000000000000      0.979900000000000     -1.647300000000000
C       5.009300000000000      0.777000000000000      1.358000000000000
C       3.985700000000000      2.020700000000000     -0.607600000000000
C       5.252800000000000      1.720300000000000      0.182300000000000
H      -4.254700000000000     -0.161300000000000      1.373100000000000
H      -0.034200000000000     -1.493300000000000      1.414800000000000
H      -3.179100000000000     -2.227700000000000     -0.517200000000000
H      -2.610800000000000     -1.949000000000000      1.132600000000000
H      -1.886200000000000      1.661300000000000      0.533100000000000
H      -1.840400000000000      0.396500000000000      1.768400000000000
H      -0.911500000000000     -3.094100000000000     -0.216900000000000
H      -0.994400000000000     -1.854100000000000     -1.466200000000000
H      -0.179800000000000      0.619700000000000     -0.796000000000000
H       0.375900000000000      0.872700000000000      0.857300000000000
H      -4.866700000000000     -0.404200000000000     -1.624600000000000
H      -5.294700000000000     -1.565500000000000     -0.353200000000000
H      -3.957800000000000      2.236200000000000      0.985100000000000
H      -4.017100000000000      2.011700000000000     -0.776500000000000
H      -7.023700000000000      0.390500000000000     -1.158300000000000
H      -6.980100000000000     -0.172900000000000      0.515400000000000
H      -6.261300000000000      1.859400000000000      1.231600000000000
H      -6.283000000000000      2.489600000000000     -0.418500000000000
H       1.404800000000000     -1.285800000000000     -1.260700000000000
H       1.578300000000000     -2.600500000000000     -0.092500000000000
H       3.834400000000000     -2.152100000000000     -0.102100000000000
H       2.370900000000000     -1.013500000000000      1.515500000000000
H       5.018300000000000     -0.605900000000000     -1.667300000000000
H       3.422500000000000     -1.090900000000000     -2.140800000000000
H       4.726000000000000     -1.267400000000000      1.906200000000000
H       5.821300000000000     -1.039500000000000      0.563600000000000
H       2.495000000000000      1.052000000000000     -1.797000000000000
H       4.019600000000000      1.270800000000000     -2.610900000000000
H       5.864300000000000      0.859700000000000      2.041300000000000
H       4.133700000000000      1.104500000000000      1.931300000000000
H       3.151000000000000      2.177900000000000      0.087300000000000
H       4.113900000000000      2.978700000000000     -1.128000000000000
H       6.049300000000000      1.345300000000000     -0.470200000000000
H       5.614900000000000      2.669700000000000      0.597400000000000
