54

N       4.572600000000000      0.828100000000000      0.255500000000000
N       6.436100000000000      0.335500000000000     -0.819200000000000
C      -1.790400000000000      0.135900000000000      0.594900000000000
C      -0.454900000000000      0.302600000000000     -0.141300000000000
C      -3.031300000000000      0.030900000000000     -0.297600000000000
C       0.743800000000000      0.418500000000000      0.803600000000000
C      -4.337400000000000     -0.072300000000000      0.491500000000000
C       2.080700000000000      0.586800000000000      0.072200000000000
C      -5.552600000000000     -0.081600000000000     -0.439200000000000
C       3.316600000000000      0.650800000000000      0.975700000000000
C      -6.856500000000000     -0.145900000000000      0.359500000000000
C      -8.109700000000000     -0.140500000000000     -0.519900000000000
C       5.377900000000000     -0.159000000000000     -0.216100000000000
C       5.064400000000000     -1.593000000000000     -0.049700000000000
C      -9.411600000000000     -0.127300000000000      0.282500000000000
C       5.133200000000000      2.025200000000000     -0.054800000000000
C       5.563300000000000     -2.465200000000000     -1.225800000000000
C       5.590400000000000     -2.179900000000000      1.281400000000000
C       6.290100000000000      1.696600000000000     -0.721700000000000
C     -10.624800000000000     -0.046100000000000     -0.631600000000000
H      -1.735700000000000     -0.759900000000000      1.226400000000000
H      -1.919800000000000      0.986900000000000      1.275900000000000
H      -0.504300000000000      1.197300000000000     -0.773800000000000
H      -0.307600000000000     -0.552700000000000     -0.811900000000000
H      -2.930100000000000     -0.842500000000000     -0.953200000000000
H      -3.070800000000000      0.912800000000000     -0.949100000000000
H       0.595500000000000      1.271300000000000      1.477200000000000
H       0.792900000000000     -0.478200000000000      1.433400000000000
H      -4.413100000000000      0.776000000000000      1.182600000000000
H      -4.327200000000000     -0.984700000000000      1.099800000000000
H       2.199500000000000     -0.239400000000000     -0.640100000000000
H       2.036700000000000      1.500300000000000     -0.535400000000000
H      -5.493300000000000     -0.941500000000000     -1.117000000000000
H      -5.549600000000000      0.822300000000000     -1.060200000000000
H       3.393300000000000     -0.243800000000000      1.600100000000000
H       3.227100000000000      1.500900000000000      1.663700000000000
H      -6.859200000000000     -1.050300000000000      0.980600000000000
H      -6.899000000000000      0.709200000000000      1.045700000000000
H      -8.093999999999999     -1.019700000000000     -1.175900000000000
H      -8.081200000000001      0.741300000000000     -1.172400000000000
H       3.975800000000000     -1.727400000000000     -0.044500000000000
H      -9.477499999999999     -1.032600000000000      0.896800000000000
H      -9.418900000000001      0.730300000000000      0.965100000000000
H       4.687500000000000      2.974400000000000      0.208300000000000
H       5.160300000000000     -2.099500000000000     -2.176700000000000
H       5.245600000000000     -3.505600000000000     -1.099900000000000
H       6.656600000000000     -2.448300000000000     -1.295500000000000
H       6.684800000000000     -2.137200000000000      1.320100000000000
H       5.284800000000000     -3.225600000000000      1.392000000000000
H       5.207600000000000     -1.622000000000000      2.141800000000000
H       7.024500000000000      2.370900000000000     -1.137500000000000
H     -10.662200000000000     -0.903900000000000     -1.310500000000000
H     -11.545199999999999     -0.040900000000000     -0.039400000000000
H     -10.602900000000000      0.868200000000000     -1.233100000000000
