55

O      -7.904100000000000      2.350600000000000     -0.022200000000000
O      -5.829200000000000      3.255300000000000     -0.258400000000000
C       2.502000000000000     -3.683100000000000     -0.076100000000000
C       1.272700000000000     -4.104300000000000     -0.007300000000000
C       2.297800000000000     -5.098300000000000     -0.077300000000000
C       3.549100000000000     -2.700700000000000     -0.132700000000000
C      -0.210900000000000     -3.964600000000000      0.076700000000000
C       3.081100000000000     -1.222600000000000     -0.036000000000000
C      -0.644100000000000     -2.497900000000000      0.063000000000000
C       4.256100000000000     -0.238500000000000     -0.063900000000000
C      -2.161600000000000     -2.311800000000000      0.160000000000000
C       3.764500000000000      1.209800000000000      0.003700000000000
C      -2.602700000000000     -0.849100000000000      0.072500000000000
C       4.896700000000000      2.240300000000000     -0.033300000000000
C      -4.126100000000000     -0.724600000000000      0.151400000000000
C       4.404300000000000      3.688600000000000      0.007900000000000
C      -4.572500000000000      0.732600000000000      0.026100000000000
C       5.576300000000000      4.670600000000000      0.042100000000000
C      -6.094600000000000      0.854200000000000      0.071900000000000
C       5.094500000000000      6.110400000000000      0.121300000000000
C      -6.549500000000000      2.283200000000000     -0.089300000000000
H       2.530400000000000     -5.630700000000000      0.831300000000000
H       2.421100000000000     -5.613400000000000     -1.016800000000000
H       4.257400000000000     -2.891200000000000      0.682700000000000
H       4.109400000000000     -2.827300000000000     -1.066900000000000
H      -0.666000000000000     -4.493600000000000     -0.768200000000000
H      -0.562000000000000     -4.447700000000000      0.995400000000000
H       2.510000000000000     -1.083800000000000      0.890700000000000
H       2.399600000000000     -1.006600000000000     -0.868600000000000
H      -0.285300000000000     -2.022400000000000     -0.859200000000000
H      -0.167700000000000     -1.964800000000000      0.895900000000000
H       4.925900000000000     -0.440100000000000      0.780500000000000
H       4.837100000000000     -0.386100000000000     -0.982100000000000
H      -2.515500000000000     -2.743000000000000      1.104600000000000
H      -2.641600000000000     -2.880200000000000     -0.646600000000000
H       3.181400000000000      1.351500000000000      0.922200000000000
H       3.083500000000000      1.399000000000000     -0.835500000000000
H      -2.245800000000000     -0.416600000000000     -0.870000000000000
H      -2.141600000000000     -0.277200000000000      0.886600000000000
H       5.492100000000000      2.088200000000000     -0.942200000000000
H       5.566300000000000      2.060100000000000      0.817000000000000
H      -4.583900000000000     -1.317600000000000     -0.649800000000000
H      -4.480800000000000     -1.138200000000000      1.103200000000000
H       3.777100000000000      3.835000000000000      0.895500000000000
H       3.776500000000000      3.888600000000000     -0.868600000000000
H      -4.129100000000000      1.327400000000000      0.834400000000000
H      -4.197900000000000      1.152600000000000     -0.915800000000000
H       6.193100000000000      4.544900000000000     -0.855300000000000
H       6.215300000000000      4.459200000000000      0.907500000000000
H      -6.538600000000000      0.262900000000000     -0.736800000000000
H      -6.466100000000000      0.481400000000000      1.033000000000000
H       5.948100000000000      6.795100000000000      0.143000000000000
H       4.476300000000000      6.365200000000000     -0.745400000000000
H       4.502500000000000      6.276800000000000      1.026900000000000
H      -8.230000000000000      3.270200000000000     -0.125000000000000
