55

O       4.094200000000000      0.609100000000000      0.240100000000000
O       3.763800000000000      0.453600000000000     -2.040000000000000
C      -1.422900000000000      2.924700000000000     -1.201200000000000
C      -0.823600000000000      3.188700000000000      0.183600000000000
C      -2.416600000000000      1.764700000000000     -1.282500000000000
C       0.631900000000000     -2.593900000000000      0.525400000000000
C      -0.774200000000000     -2.471800000000000     -0.068900000000000
C       1.708300000000000     -2.010300000000000     -0.397500000000000
C      -0.128500000000000      1.970600000000000      0.794200000000000
C      -3.707700000000000      1.921300000000000     -0.469000000000000
C      -1.873400000000000     -3.046700000000000      0.831000000000000
C       3.119800000000000     -2.122400000000000      0.190300000000000
C       0.445100000000000      2.297100000000000      2.173800000000000
C      -4.705700000000000      0.773200000000000     -0.636800000000000
C      -3.277100000000000     -3.014300000000000      0.224200000000000
C       4.181800000000000     -1.533800000000000     -0.734000000000000
C       1.169300000000000      1.102100000000000      2.772700000000000
C      -4.152600000000000     -0.542300000000000     -0.287500000000000
C      -3.744000000000000     -1.645400000000000     -0.043200000000000
C       3.987200000000000     -0.052500000000000     -0.948000000000000
C       3.924800000000000      2.028400000000000      0.173400000000000
H      -1.912300000000000      3.841600000000000     -1.551700000000000
H      -0.603100000000000      2.724800000000000     -1.902800000000000
H      -1.613600000000000      3.536900000000000      0.859700000000000
H      -0.103900000000000      4.012200000000000      0.098000000000000
H      -1.908200000000000      0.833000000000000     -1.014500000000000
H      -2.698300000000000      1.649900000000000     -2.337700000000000
H       0.662600000000000     -2.076500000000000      1.491900000000000
H       0.854100000000000     -3.650100000000000      0.719900000000000
H      -0.978600000000000     -1.413800000000000     -0.269500000000000
H      -0.798900000000000     -2.988000000000000     -1.036700000000000
H       1.467900000000000     -0.958200000000000     -0.591000000000000
H       1.676000000000000     -2.528200000000000     -1.363900000000000
H      -0.837400000000000      1.142700000000000      0.904400000000000
H       0.669000000000000      1.627400000000000      0.125600000000000
H      -4.200100000000000      2.859400000000000     -0.752500000000000
H      -3.450300000000000      2.008900000000000      0.593700000000000
H      -1.874400000000000     -2.499900000000000      1.782800000000000
H      -1.626500000000000     -4.089000000000000      1.069000000000000
H       3.353300000000000     -3.179400000000000      0.365800000000000
H       3.147900000000000     -1.625500000000000      1.167300000000000
H       1.146600000000000      3.135700000000000      2.094300000000000
H      -0.359400000000000      2.608800000000000      2.849800000000000
H      -5.585000000000000      0.974500000000000     -0.013700000000000
H      -5.056500000000000      0.751900000000000     -1.675600000000000
H      -3.973900000000000     -3.505400000000000      0.913400000000000
H      -3.288300000000000     -3.595000000000000     -0.705500000000000
H       4.154700000000000     -2.031400000000000     -1.710200000000000
H       5.184700000000000     -1.691500000000000     -0.321800000000000
H       1.982700000000000      0.764900000000000      2.124600000000000
H       0.481300000000000      0.263100000000000      2.919200000000000
H       1.595300000000000      1.365100000000000      3.745800000000000
H       3.905900000000000      2.417800000000000      1.194600000000000
H       2.981100000000000      2.284400000000000     -0.316800000000000
H       4.768000000000000      2.478100000000000     -0.359100000000000
