55

O      -4.776400000000000      1.025600000000000     -0.323500000000000
O      -4.022000000000000     -0.747000000000000     -1.592100000000000
C      -0.778400000000000     -2.703200000000000      0.684000000000000
C       0.645200000000000     -2.192100000000000      0.452700000000000
C      -1.791400000000000     -1.556700000000000      0.665100000000000
C       1.652700000000000     -3.346000000000000      0.438200000000000
C      -3.219200000000000     -2.075000000000000      0.862600000000000
C       3.097500000000000     -2.878600000000000      0.236300000000000
C      -4.258000000000000     -0.954300000000000      0.820400000000000
C       1.718600000000000      2.556800000000000     -0.038400000000000
C       0.512600000000000      2.675800000000000      0.896700000000000
C       3.316300000000000     -2.205400000000000     -1.087800000000000
C       3.031400000000000      2.563100000000000      0.749100000000000
C      -0.825200000000000      2.743900000000000      0.156800000000000
C       3.805800000000000     -0.963500000000000     -1.220900000000000
C       4.196300000000000     -0.091800000000000     -0.063400000000000
C      -4.316000000000000     -0.246200000000000     -0.515300000000000
C       4.213600000000000      2.414500000000000     -0.163900000000000
C       4.732300000000000      1.231600000000000     -0.525800000000000
C      -2.020400000000000      2.932800000000000      1.077900000000000
C      -4.915500000000000      1.815900000000000     -1.508500000000000
H      -1.036000000000000     -3.431900000000000     -0.094400000000000
H      -0.830900000000000     -3.225500000000000      1.646900000000000
H       0.679200000000000     -1.648900000000000     -0.498800000000000
H       0.913600000000000     -1.479300000000000      1.242000000000000
H      -1.549200000000000     -0.838200000000000      1.457900000000000
H      -1.706700000000000     -1.022300000000000     -0.287700000000000
H       1.592400000000000     -3.892900000000000      1.387300000000000
H       1.383200000000000     -4.057500000000000     -0.352800000000000
H      -3.449100000000000     -2.817400000000000      0.088400000000000
H      -3.290700000000000     -2.587500000000000      1.829500000000000
H       3.751400000000000     -3.758900000000000      0.273000000000000
H       3.387500000000000     -2.253000000000000      1.086100000000000
H      -4.021900000000000     -0.223100000000000      1.602600000000000
H      -5.254000000000000     -1.362200000000000      1.023600000000000
H       1.712100000000000      3.389300000000000     -0.753300000000000
H       1.628400000000000      1.632500000000000     -0.622300000000000
H       0.499500000000000      1.820700000000000      1.584000000000000
H       0.623900000000000      3.576400000000000      1.513500000000000
H       3.069700000000000     -2.769200000000000     -1.983800000000000
H       3.022400000000000      1.809200000000000      1.542800000000000
H       3.133500000000000      3.522500000000000      1.273000000000000
H      -0.800300000000000      3.574800000000000     -0.558300000000000
H      -0.966500000000000      1.826500000000000     -0.427100000000000
H       3.925900000000000     -0.575500000000000     -2.230100000000000
H       3.335500000000000      0.007800000000000      0.601300000000000
H       4.997200000000000     -0.582100000000000      0.503900000000000
H       4.660800000000000      3.324500000000000     -0.555100000000000
H       5.598000000000000      1.224700000000000     -1.183900000000000
H      -1.910900000000000      3.841000000000000      1.679000000000000
H      -2.940600000000000      3.022700000000000      0.494300000000000
H      -2.126400000000000      2.081200000000000      1.757200000000000
H      -5.290500000000000      2.800800000000000     -1.218200000000000
H      -5.635000000000000      1.352900000000000     -2.190600000000000
H      -3.943800000000000      1.940100000000000     -1.996100000000000
