55

O       1.664000000000000     -2.576400000000000      0.537900000000000
O       0.977500000000000     -1.184300000000000     -1.171400000000000
C      -4.047300000000000     -0.276500000000000     -0.251000000000000
C      -5.430400000000000     -0.288500000000000      0.406700000000000
C      -2.993400000000000     -1.061600000000000      0.534000000000000
C      -6.490300000000000      0.475000000000000     -0.390800000000000
C      -1.635400000000000     -1.026100000000000     -0.175100000000000
C      -7.830600000000000      0.492400000000000      0.345300000000000
C      -0.568700000000000     -1.825900000000000      0.567300000000000
C      -8.878200000000000      1.282100000000000     -0.423500000000000
C       0.764300000000000     -1.807200000000000     -0.139200000000000
C       5.281800000000000      0.525100000000000      0.521900000000000
C       4.430300000000000     -0.545300000000000     -0.128000000000000
C       4.762400000000000      1.950900000000000      0.294700000000000
C       2.972900000000000     -2.642700000000000     -0.036700000000000
C       3.800800000000000     -1.535600000000000      0.534100000000000
C       3.370200000000000      2.150500000000000      0.826900000000000
C       4.341900000000000     -0.468500000000000     -1.630900000000000
C       2.287600000000000      2.609400000000000      0.171100000000000
C       2.251600000000000      3.004600000000000     -1.277700000000000
C       0.969000000000000      2.748400000000000      0.884600000000000
H      -3.714100000000000      0.762700000000000     -0.364900000000000
H      -4.130200000000000     -0.694800000000000     -1.261900000000000
H      -5.757500000000000     -1.327500000000000      0.537900000000000
H      -5.348200000000000      0.146300000000000      1.410600000000000
H      -2.894200000000000     -0.639600000000000      1.541200000000000
H      -3.321600000000000     -2.101700000000000      0.648200000000000
H      -6.613100000000000      0.011400000000000     -1.376900000000000
H      -6.149600000000000      1.504100000000000     -0.557100000000000
H      -1.306100000000000      0.015300000000000     -0.280700000000000
H      -1.745300000000000     -1.422500000000000     -1.192600000000000
H      -7.705000000000000      0.938100000000000      1.338900000000000
H      -8.187600000000000     -0.533600000000000      0.492400000000000
H      -0.427100000000000     -1.409200000000000      1.570800000000000
H      -0.890500000000000     -2.869500000000000      0.658100000000000
H      -9.050800000000001      0.845300000000000     -1.412300000000000
H      -8.565300000000001      2.322600000000000     -0.557200000000000
H      -9.828400000000000      1.280200000000000      0.119600000000000
H       6.305600000000000      0.449400000000000      0.134400000000000
H       5.354300000000000      0.338300000000000      1.601600000000000
H       5.425800000000000      2.646000000000000      0.824300000000000
H       4.848400000000000      2.205000000000000     -0.764500000000000
H       2.914300000000000     -2.672000000000000     -1.127300000000000
H       3.408500000000000     -3.599300000000000      0.271900000000000
H       3.903500000000000     -1.557500000000000      1.618300000000000
H       3.258400000000000      1.905200000000000      1.882700000000000
H       3.495500000000000      0.155100000000000     -1.933600000000000
H       4.254800000000000     -1.445300000000000     -2.112300000000000
H       5.253800000000000     -0.021500000000000     -2.043400000000000
H       1.537700000000000      2.374400000000000     -1.819000000000000
H       1.929800000000000      4.047100000000000     -1.373300000000000
H       3.212800000000000      2.916400000000000     -1.786200000000000
H       0.632300000000000      3.790100000000000      0.859500000000000
H       0.209500000000000      2.125400000000000      0.400900000000000
H       1.027200000000000      2.443400000000000      1.934700000000000
