55

O      -9.210699999999999      0.412000000000000     -0.812200000000000
O      -8.049400000000000      1.804100000000000      0.614100000000000
C      -1.991100000000000     -1.134900000000000      0.165900000000000
C      -3.156100000000000     -0.214700000000000      0.539900000000000
C      -0.669400000000000     -0.745900000000000      0.836700000000000
C      -4.478200000000000     -0.602700000000000     -0.131700000000000
C       0.513600000000000     -1.617700000000000      0.408200000000000
C      -5.638900000000000      0.334800000000000      0.219100000000000
C       1.801200000000000     -1.188600000000000      1.116900000000000
C      -6.941400000000000     -0.068900000000000     -0.473800000000000
C       7.191500000000000      0.408300000000000     -0.159800000000000
C       7.432600000000000      1.882600000000000     -0.502200000000000
C       2.971000000000000     -2.017600000000000      0.669600000000000
C       6.435800000000000     -0.344300000000000     -1.260400000000000
C       8.242000000000001      2.625000000000000      0.564000000000000
C      -8.104699999999999      0.835800000000000     -0.131500000000000
C       4.055700000000000     -1.507700000000000      0.067400000000000
C       6.262100000000000     -1.805300000000000     -0.957500000000000
C       5.177200000000000     -2.315000000000000     -0.355300000000000
C       8.550599999999999      4.068000000000000      0.195700000000000
C     -10.393500000000000      1.192800000000000     -0.613000000000000
H      -2.242400000000000     -2.167100000000000      0.439100000000000
H      -1.859000000000000     -1.118800000000000     -0.923000000000000
H      -3.289500000000000     -0.226200000000000      1.628600000000000
H      -2.902400000000000      0.816100000000000      0.262900000000000
H      -0.445700000000000      0.302300000000000      0.601900000000000
H      -0.790800000000000     -0.807000000000000      1.925300000000000
H      -4.338300000000000     -0.608500000000000     -1.219800000000000
H      -4.741100000000000     -1.627200000000000      0.159500000000000
H       0.294300000000000     -2.668600000000000      0.635000000000000
H       0.643800000000000     -1.544000000000000     -0.678900000000000
H      -5.377500000000000      1.362000000000000     -0.064000000000000
H      -5.787900000000000      0.339300000000000      1.306100000000000
H       1.684800000000000     -1.308000000000000      2.200700000000000
H       1.986200000000000     -0.123300000000000      0.932600000000000
H      -7.210200000000000     -1.089600000000000     -0.178800000000000
H      -6.798700000000000     -0.040700000000000     -1.560100000000000
H       8.157800000000000     -0.081400000000000      0.016800000000000
H       6.630700000000000      0.347400000000000      0.781300000000000
H       7.962700000000000      1.944900000000000     -1.460700000000000
H       6.467600000000000      2.385700000000000     -0.640200000000000
H       2.909000000000000     -3.086900000000000      0.860200000000000
H       5.491200000000000      0.157800000000000     -1.492100000000000
H       7.014800000000000     -0.277300000000000     -2.191400000000000
H       9.187900000000001      2.097200000000000      0.735000000000000
H       7.693000000000000      2.608500000000000      1.512900000000000
H       4.082400000000000     -0.435100000000000     -0.089000000000000
H       7.073900000000000     -2.473900000000000     -1.231600000000000
H       5.135400000000000     -3.384600000000000     -0.168300000000000
H       7.628100000000000      4.638700000000000      0.049600000000000
H       9.127300000000000      4.549000000000000      0.991900000000000
H       9.135800000000000      4.118600000000000     -0.727900000000000
H     -10.686500000000001      1.174300000000000      0.441100000000000
H     -10.230300000000000      2.220400000000000     -0.951400000000000
H     -11.196999999999999      0.750900000000000     -1.208300000000000
