55

O      -3.680200000000000      0.926700000000000     -1.134000000000000
O      -3.425900000000000      2.859000000000000      0.099300000000000
C       0.165400000000000     -2.643300000000000     -0.132800000000000
C      -1.358200000000000     -2.527000000000000     -0.229000000000000
C       0.788400000000000     -2.881600000000000     -1.512700000000000
C      -2.042900000000000     -2.358600000000000      1.130500000000000
C       2.317200000000000     -2.982800000000000     -1.483000000000000
C      -3.568900000000000     -2.315900000000000      1.042000000000000
C       0.899100000000000      2.376000000000000     -0.237200000000000
C       1.818600000000000      3.362300000000000      0.493800000000000
C      -0.589800000000000      2.703500000000000     -0.080700000000000
C       3.312600000000000      3.024000000000000      0.448100000000000
C       2.981700000000000     -1.773200000000000     -0.887900000000000
C      -1.486000000000000      1.655500000000000     -0.742100000000000
C      -4.201400000000000     -2.220200000000000      2.422100000000000
C       3.624100000000000      1.665000000000000      1.004600000000000
C       4.509900000000000     -0.677200000000000      0.846200000000000
C       3.791100000000000     -1.821800000000000      0.182100000000000
C       4.207500000000000      0.686400000000000      0.296500000000000
C      -2.961100000000000      1.920000000000000     -0.532400000000000
C      -5.101200000000000      1.023400000000000     -0.993500000000000
H       0.432200000000000     -3.470400000000000      0.535900000000000
H       0.557000000000000     -1.722800000000000      0.314600000000000
H      -1.622500000000000     -1.681900000000000     -0.875600000000000
H      -1.754500000000000     -3.428200000000000     -0.713600000000000
H       0.496200000000000     -2.065300000000000     -2.185700000000000
H       0.383600000000000     -3.805200000000000     -1.944200000000000
H      -1.680000000000000     -1.437700000000000      1.603700000000000
H      -1.744100000000000     -3.188400000000000      1.783200000000000
H       2.683400000000000     -3.109000000000000     -2.508800000000000
H       2.603100000000000     -3.889800000000000     -0.936100000000000
H       1.068000000000000      1.362100000000000      0.144400000000000
H       1.160100000000000      2.361100000000000     -1.302400000000000
H      -3.881600000000000     -1.458100000000000      0.437600000000000
H      -3.937300000000000     -3.218200000000000      0.540600000000000
H       1.674700000000000      4.364300000000000      0.070900000000000
H       1.505300000000000      3.423800000000000      1.544400000000000
H      -0.796600000000000      3.691200000000000     -0.511100000000000
H      -0.836100000000000      2.770100000000000      0.986500000000000
H       3.664200000000000      3.107900000000000     -0.587600000000000
H       3.865400000000000      3.772400000000000      1.028300000000000
H      -1.291100000000000      1.633300000000000     -1.820000000000000
H      -1.260000000000000      0.670600000000000     -0.319700000000000
H       2.779400000000000     -0.828400000000000     -1.383900000000000
H      -3.933800000000000     -3.084600000000000      3.038000000000000
H      -5.292100000000000     -2.188100000000000      2.337100000000000
H      -3.874300000000000     -1.313300000000000      2.940800000000000
H       3.346200000000000      1.484600000000000      2.040000000000000
H       5.589000000000000     -0.851500000000000      0.758200000000000
H       4.276600000000000     -0.712600000000000      1.917700000000000
H       3.974200000000000     -2.792400000000000      0.640700000000000
H       4.497200000000000      0.878100000000000     -0.734300000000000
H      -5.552300000000000      0.173200000000000     -1.511900000000000
H      -5.465100000000000      1.948000000000000     -1.451500000000000
H      -5.381000000000000      0.978100000000000      0.063300000000000
