55

O      -1.378700000000000      4.381700000000000     -0.569100000000000
O      -1.273000000000000      2.622600000000000      0.871300000000000
C       2.252800000000000     -1.577000000000000      0.352600000000000
C       3.240100000000000     -0.553700000000000     -0.210700000000000
C       0.829100000000000     -1.415000000000000     -0.187900000000000
C       4.659200000000000     -0.818100000000000      0.298100000000000
C      -0.187300000000000     -2.463500000000000      0.278200000000000
C       5.655800000000000      0.181800000000000     -0.290800000000000
C      -1.573700000000000     -2.287700000000000     -0.346300000000000
C       7.079100000000000     -0.104700000000000      0.191300000000000
C      -2.588800000000000     -3.342500000000000      0.113300000000000
C       8.110099999999999      0.891300000000000     -0.343400000000000
C      -3.984100000000000     -3.223900000000000     -0.502000000000000
C       9.523600000000000      0.626800000000000      0.152800000000000
C      -4.652900000000000     -1.962400000000000     -0.155500000000000
C      -5.364300000000000      1.528700000000000     -0.172400000000000
C      -3.928600000000000      1.832100000000000      0.273200000000000
C      -5.978500000000000      0.275500000000000      0.454300000000000
C      -3.312400000000000      3.059100000000000     -0.391900000000000
C      -5.233300000000000     -0.947600000000000      0.121500000000000
C      -1.894200000000000      3.296300000000000      0.063500000000000
H       2.231300000000000     -1.501200000000000      1.446700000000000
H       2.605400000000000     -2.587900000000000      0.113100000000000
H       2.924200000000000      0.457100000000000      0.073700000000000
H       3.229300000000000     -0.600500000000000     -1.306300000000000
H       0.869500000000000     -1.436800000000000     -1.284600000000000
H       0.459400000000000     -0.418700000000000      0.086600000000000
H       4.675500000000000     -0.754700000000000      1.392800000000000
H       4.961600000000000     -1.837400000000000      0.028300000000000
H      -0.271900000000000     -2.417600000000000      1.370700000000000
H       0.193000000000000     -3.462500000000000      0.031800000000000
H       5.368200000000000      1.200200000000000     -0.002900000000000
H       5.625800000000000      0.134400000000000     -1.386100000000000
H      -1.944100000000000     -1.286100000000000     -0.098400000000000
H      -1.485200000000000     -2.331000000000000     -1.438800000000000
H       7.368300000000000     -1.118500000000000     -0.112000000000000
H       7.099800000000000     -0.084700000000000      1.288100000000000
H      -2.673100000000000     -3.296300000000000      1.207000000000000
H      -2.192800000000000     -4.337500000000000     -0.126000000000000
H       7.818700000000000      1.907400000000000     -0.051800000000000
H       8.107799999999999      0.862400000000000     -1.439600000000000
H      -3.910400000000000     -3.312800000000000     -1.592100000000000
H      -4.597100000000000     -4.064500000000000     -0.156500000000000
H       9.863899999999999     -0.367900000000000     -0.151900000000000
H      10.216500000000000      1.366300000000000     -0.260400000000000
H       9.571300000000001      0.686800000000000      1.244700000000000
H      -6.000100000000000      2.388700000000000      0.072000000000000
H      -5.380300000000000      1.428000000000000     -1.265500000000000
H      -3.287900000000000      0.966800000000000      0.063900000000000
H      -3.915400000000000      1.964200000000000      1.362700000000000
H      -6.018400000000000      0.394800000000000      1.543300000000000
H      -7.013700000000000      0.175100000000000      0.108100000000000
H      -3.905600000000000      3.947200000000000     -0.148000000000000
H      -3.304800000000000      2.922400000000000     -1.478900000000000
H      -0.453000000000000      4.558300000000000     -0.296600000000000
