55

O       5.826300000000000     -0.280700000000000      1.297300000000000
O       5.514500000000000      0.915800000000000     -0.649900000000000
C       0.389700000000000      2.028100000000000     -0.601400000000000
C      -1.064100000000000      2.054100000000000     -0.124800000000000
C       1.278800000000000      1.244400000000000      0.366300000000000
C      -1.957700000000000      2.810200000000000     -1.112900000000000
C       2.726800000000000      1.190700000000000     -0.130700000000000
C      -3.420100000000000      2.885600000000000     -0.662900000000000
C       3.634800000000000      0.389500000000000      0.802100000000000
C      -1.432900000000000     -2.364800000000000      0.222500000000000
C      -0.779900000000000     -2.517400000000000     -1.153600000000000
C      -4.072300000000000      1.537100000000000     -0.561100000000000
C      -2.922600000000000     -2.035900000000000      0.093900000000000
C       0.726300000000000     -2.779200000000000     -1.085300000000000
C      -4.651800000000000      1.071600000000000      0.555700000000000
C      -5.300500000000000     -0.277700000000000      0.659300000000000
C       5.082900000000000      0.384500000000000      0.364100000000000
C      -3.571200000000000     -1.917200000000000      1.442500000000000
C      -4.630600000000000     -1.133800000000000      1.694100000000000
C       1.391500000000000     -2.861500000000000     -2.450300000000000
C       7.232000000000000     -0.343300000000000      1.035100000000000
H       0.439600000000000      1.569000000000000     -1.596400000000000
H       0.764900000000000      3.053900000000000     -0.698400000000000
H      -1.418800000000000      1.023900000000000     -0.007300000000000
H      -1.120100000000000      2.531000000000000      0.861200000000000
H       1.248200000000000      1.713800000000000      1.356900000000000
H       0.892500000000000      0.225600000000000      0.480500000000000
H      -1.578200000000000      3.832000000000000     -1.236000000000000
H      -1.901100000000000      2.331400000000000     -2.098900000000000
H       2.755900000000000      0.745500000000000     -1.133300000000000
H       3.115400000000000      2.211900000000000     -0.231800000000000
H      -3.981300000000000      3.481200000000000     -1.392900000000000
H      -3.478900000000000      3.422800000000000      0.291600000000000
H       3.289700000000000     -0.649600000000000      0.847000000000000
H       3.589400000000000      0.820900000000000      1.808800000000000
H      -0.926600000000000     -1.568900000000000      0.782500000000000
H      -1.297800000000000     -3.293300000000000      0.791200000000000
H      -1.264300000000000     -3.336900000000000     -1.698700000000000
H      -0.953100000000000     -1.603500000000000     -1.735800000000000
H      -4.072700000000000      0.925400000000000     -1.459800000000000
H      -3.417300000000000     -2.846100000000000     -0.455400000000000
H      -3.026800000000000     -1.124300000000000     -0.498500000000000
H       1.210200000000000     -1.983500000000000     -0.507800000000000
H       0.906100000000000     -3.716100000000000     -0.544900000000000
H      -4.663300000000000      1.693600000000000      1.447900000000000
H      -6.349100000000000     -0.139800000000000      0.950700000000000
H      -5.333900000000000     -0.786300000000000     -0.311700000000000
H      -3.176100000000000     -2.522000000000000      2.254800000000000
H      -5.035300000000000     -1.109300000000000      2.702700000000000
H       1.267800000000000     -1.923800000000000     -3.001200000000000
H       2.463400000000000     -3.053200000000000     -2.340200000000000
H       0.959000000000000     -3.670800000000000     -3.046900000000000
H       7.705500000000000     -0.897100000000000      1.850200000000000
H       7.656300000000000      0.664700000000000      1.002400000000000
H       7.418800000000000     -0.872600000000000      0.095900000000000
