55

O       4.307200000000000     -1.035200000000000     -1.432900000000000
O       3.240000000000000     -0.560700000000000      0.556100000000000
C      -0.404300000000000     -3.055000000000000      0.717600000000000
C      -1.683700000000000     -2.463600000000000      0.122000000000000
C       0.824200000000000     -2.669800000000000     -0.109000000000000
C      -2.907500000000000     -2.822600000000000      0.970700000000000
C       2.107400000000000     -3.234300000000000      0.508500000000000
C      -4.217500000000000     -2.273700000000000      0.397000000000000
C       3.356500000000000     -2.842100000000000     -0.280500000000000
C      -0.124400000000000      2.909500000000000      0.593600000000000
C       1.270400000000000      3.475600000000000      0.315400000000000
C      -4.252800000000000     -0.773500000000000      0.347700000000000
C      -1.131500000000000      3.378800000000000     -0.459600000000000
C       2.303600000000000      3.093900000000000      1.377600000000000
C      -4.470500000000000     -0.069300000000000     -0.773100000000000
C      -4.502100000000000      1.430300000000000     -0.823800000000000
C       3.599400000000000     -1.349200000000000     -0.307500000000000
C      -2.492700000000000      2.798900000000000     -0.206200000000000
C      -3.137100000000000      2.002500000000000     -1.072300000000000
C       3.673400000000000      3.711600000000000      1.143100000000000
C       4.642000000000000      0.348000000000000     -1.584400000000000
H      -0.280300000000000     -2.695800000000000      1.746500000000000
H      -0.489500000000000     -4.147400000000000      0.763900000000000
H      -1.576300000000000     -1.374600000000000      0.056700000000000
H      -1.822000000000000     -2.838100000000000     -0.899500000000000
H       0.712800000000000     -3.048500000000000     -1.132300000000000
H       0.880300000000000     -1.577400000000000     -0.175200000000000
H      -2.990000000000000     -3.914100000000000      1.044100000000000
H      -2.768200000000000     -2.447300000000000      1.992600000000000
H       2.201400000000000     -2.881400000000000      1.542900000000000
H       2.042600000000000     -4.328300000000000      0.547800000000000
H      -5.046700000000000     -2.613300000000000      1.029300000000000
H      -4.386100000000000     -2.702900000000000     -0.598300000000000
H       3.254400000000000     -3.206700000000000     -1.309500000000000
H       4.239900000000000     -3.314300000000000      0.162700000000000
H      -0.455900000000000      3.225700000000000      1.590600000000000
H      -0.075400000000000      1.813300000000000      0.604100000000000
H       1.616800000000000      3.125500000000000     -0.664900000000000
H       1.208900000000000      4.569500000000000      0.257200000000000
H      -4.107000000000000     -0.247000000000000      1.287800000000000
H      -0.773300000000000      3.105500000000000     -1.459600000000000
H      -1.209700000000000      4.472300000000000     -0.437100000000000
H       1.942400000000000      3.408000000000000      2.364200000000000
H       2.404400000000000      2.003100000000000      1.410000000000000
H      -4.612100000000000     -0.593700000000000     -1.715100000000000
H      -5.177000000000000      1.745700000000000     -1.628100000000000
H      -4.931200000000000      1.827000000000000      0.105000000000000
H      -2.968200000000000      3.058600000000000      0.736500000000000
H      -2.663900000000000      1.752200000000000     -2.019200000000000
H       3.614800000000000      4.804600000000000      1.146500000000000
H       4.369200000000000      3.404400000000000      1.929900000000000
H       4.084600000000000      3.392200000000000      0.180200000000000
H       5.194600000000000      0.464000000000000     -2.520600000000000
H       5.278800000000000      0.676100000000000     -0.757300000000000
H       3.732700000000000      0.954800000000000     -1.635500000000000
