56

O       5.501500000000000      1.722800000000000     -0.248100000000000
N      -2.636100000000000      1.684200000000000     -1.331000000000000
C       0.188100000000000     -0.303500000000000      0.278000000000000
C       1.700100000000000     -0.086800000000000      0.269500000000000
C      -0.134500000000000     -1.726900000000000     -0.172800000000000
C      -0.499600000000000      0.757200000000000     -0.601000000000000
C       2.087200000000000      1.067900000000000      1.204100000000000
C       2.202600000000000      0.171100000000000     -1.158000000000000
C      -1.651400000000000     -1.958500000000000     -0.192600000000000
C       0.563200000000000     -2.752800000000000      0.730700000000000
C      -1.949600000000000      1.033800000000000     -0.207700000000000
C       3.588200000000000      1.339300000000000      1.170700000000000
C       3.703400000000000      0.444800000000000     -1.184600000000000
C      -1.997800000000000     -3.391900000000000     -0.589100000000000
C       0.213100000000000     -4.184800000000000      0.332400000000000
C       4.084300000000000      1.591400000000000     -0.251600000000000
C      -1.295700000000000     -4.408700000000000      0.305400000000000
C      -2.008200000000000      1.913600000000000      1.048700000000000
C      -3.448600000000000      2.266000000000000      1.409900000000000
C      -4.038600000000000      1.960900000000000     -1.019500000000000
C      -4.171800000000000      2.860900000000000      0.206700000000000
H      -0.158000000000000     -0.198700000000000      1.314000000000000
H       2.253900000000000     -0.936900000000000      0.666000000000000
H       0.229000000000000     -1.883400000000000     -1.197100000000000
H      -0.467300000000000      0.419400000000000     -1.646600000000000
H       0.027400000000000      1.718100000000000     -0.573300000000000
H       1.792700000000000      0.829500000000000      2.233500000000000
H       1.561400000000000      1.990600000000000      0.934400000000000
H       1.728800000000000      1.039800000000000     -1.624900000000000
H       1.999700000000000     -0.690500000000000     -1.803000000000000
H      -2.116600000000000     -1.364800000000000     -0.982400000000000
H      -2.098700000000000     -1.742700000000000      0.784200000000000
H       0.284600000000000     -2.587300000000000      1.779000000000000
H       1.651600000000000     -2.705900000000000      0.669200000000000
H      -2.526800000000000      0.154900000000000      0.046800000000000
H       3.827000000000000      2.201300000000000      1.805300000000000
H       4.132200000000000      0.491800000000000      1.607800000000000
H       4.252900000000000     -0.462400000000000     -0.900700000000000
H       4.026600000000000      0.676300000000000     -2.206900000000000
H      -3.082500000000000     -3.539100000000000     -0.534800000000000
H      -1.704700000000000     -3.565400000000000     -1.632300000000000
H       0.631500000000000     -4.402100000000000     -0.658300000000000
H       0.675700000000000     -4.887300000000000      1.035100000000000
H       3.662400000000000      2.528700000000000     -0.633600000000000
H      -1.693700000000000     -4.333500000000000      1.324900000000000
H      -1.512000000000000     -5.423000000000000     -0.048200000000000
H      -1.548100000000000      1.407900000000000      1.904400000000000
H      -1.444500000000000      2.842200000000000      0.888700000000000
H      -2.591800000000000      1.081800000000000     -2.152800000000000
H      -3.463700000000000      2.974900000000000      2.245000000000000
H      -3.974400000000000      1.363200000000000      1.744400000000000
H      -4.499700000000000      2.458200000000000     -1.879800000000000
H      -4.584100000000000      1.022100000000000     -0.863500000000000
H      -5.230900000000000      3.007500000000000      0.446400000000000
H      -3.754200000000000      3.850900000000000     -0.016900000000000
H       5.725900000000000      2.458200000000000      0.347200000000000
