56

O       2.292400000000000     -0.777100000000000     -1.136700000000000
N      -2.438300000000000      1.653500000000000     -1.039400000000000
C      -2.950600000000000     -0.550900000000000     -0.216400000000000
C      -2.490900000000000      0.840000000000000      0.183800000000000
C      -1.137600000000000      0.871100000000000      0.981000000000000
C      -4.308700000000000     -0.559000000000000     -0.910900000000000
C      -3.189500000000000     -1.471700000000000      0.976100000000000
C      -4.763900000000000     -2.011300000000000     -0.811400000000000
C      -4.052600000000000     -2.595400000000000      0.410300000000000
C       0.050100000000000      0.290300000000000      0.150900000000000
C      -0.750000000000000      2.316200000000000      1.377200000000000
C      -1.276400000000000      0.054900000000000      2.289000000000000
C       1.409800000000000      0.276500000000000      0.855800000000000
C       3.855400000000000     -0.447500000000000      0.624700000000000
C       2.496300000000000     -0.356300000000000      0.000900000000000
C       4.626200000000000     -1.645200000000000      0.067300000000000
C       4.683900000000000      0.794700000000000      0.277900000000000
C      -1.500800000000000      1.068300000000000     -1.993400000000000
C      -2.058400000000000      3.025400000000000     -0.716200000000000
C       5.545600000000000     -1.052000000000000     -0.990500000000000
C       5.957900000000000      0.275300000000000     -0.379800000000000
H      -2.244300000000000     -1.096000000000000     -0.847700000000000
H      -3.267000000000000      1.273300000000000      0.832400000000000
H      -4.262200000000000     -0.231100000000000     -1.954000000000000
H      -5.024200000000000      0.085400000000000     -0.384900000000000
H      -3.748100000000000     -0.980200000000000      1.779200000000000
H      -2.300900000000000     -1.966400000000000      1.357100000000000
H      -5.852500000000000     -2.083300000000000     -0.722900000000000
H      -4.469900000000000     -2.565200000000000     -1.710600000000000
H      -3.432200000000000     -3.445900000000000      0.103500000000000
H      -4.764400000000000     -2.964000000000000      1.156200000000000
H      -0.171100000000000     -0.728900000000000     -0.182800000000000
H       0.285700000000000      0.908900000000000     -0.705200000000000
H      -0.095800000000000      2.846000000000000      0.686100000000000
H      -1.592200000000000      2.907400000000000      1.745800000000000
H      -0.098000000000000      2.278500000000000      2.263900000000000
H      -0.579100000000000      0.427000000000000      3.052300000000000
H      -0.972700000000000     -0.986800000000000      2.188500000000000
H      -2.259200000000000      0.163500000000000      2.754600000000000
H       1.351500000000000     -0.304400000000000      1.781700000000000
H       1.737700000000000      1.292000000000000      1.099600000000000
H       3.736600000000000     -0.564300000000000      1.707700000000000
H       3.998200000000000     -2.445700000000000     -0.336100000000000
H       5.237500000000000     -2.083700000000000      0.866500000000000
H       4.921700000000000      1.379000000000000      1.173300000000000
H       4.151100000000000      1.461400000000000     -0.410800000000000
H      -2.021300000000000      1.138400000000000     -2.960800000000000
H      -0.606000000000000      1.674600000000000     -2.181500000000000
H      -1.236100000000000      0.013300000000000     -1.961700000000000
H      -1.006400000000000      3.291400000000000     -0.813800000000000
H      -2.582300000000000      3.453800000000000      0.142400000000000
H      -2.489200000000000      3.621600000000000     -1.536800000000000
H       5.000200000000000     -0.888600000000000     -1.927100000000000
H       6.404000000000000     -1.696100000000000     -1.201600000000000
H       6.731700000000000      0.115300000000000      0.380600000000000
H       6.354500000000000      0.972400000000000     -1.123600000000000
