56

O      -0.531100000000000      2.320200000000000     -0.343500000000000
N      -2.857500000000000      0.708100000000000     -0.438000000000000
C       3.237400000000000      0.262000000000000     -0.645900000000000
C       3.231100000000000     -1.295100000000000     -0.682900000000000
C       3.631700000000000     -1.198400000000000      0.816400000000000
C       4.396200000000000      0.095200000000000      0.390500000000000
C       1.919700000000000      0.808900000000000     -0.066800000000000
C       2.409300000000000     -0.959700000000000      1.709600000000000
C       1.803200000000000      0.418400000000000      1.418900000000000
C       4.315500000000000     -1.892800000000000     -1.569900000000000
C       1.931200000000000     -1.994900000000000     -1.020400000000000
C       1.860300000000000      2.323900000000000     -0.238500000000000
C       0.575000000000000      2.907600000000000      0.327700000000000
C      -1.766400000000000      2.827700000000000      0.143800000000000
C      -2.902300000000000      2.159500000000000     -0.614500000000000
C      -3.918500000000000     -1.895600000000000      0.392900000000000
C      -2.942800000000000      0.360500000000000      0.986700000000000
C      -3.931200000000000      0.063600000000000     -1.206100000000000
C      -2.843000000000000     -1.152300000000000      1.192600000000000
C      -3.865800000000000     -1.459500000000000     -1.075200000000000
C      -3.752200000000000     -3.407100000000000      0.522500000000000
H       3.522400000000000      0.733400000000000     -1.593000000000000
H       4.261900000000000     -2.014700000000000      1.184500000000000
H       5.402300000000000     -0.041300000000000     -0.017100000000000
H       4.480800000000000      0.878000000000000      1.151500000000000
H       1.075600000000000      0.393800000000000     -0.627200000000000
H       2.720500000000000     -0.981900000000000      2.761500000000000
H       1.669500000000000     -1.759700000000000      1.608400000000000
H       0.758400000000000      0.436000000000000      1.750100000000000
H       2.331800000000000      1.155900000000000      2.037900000000000
H       5.313300000000000     -1.469800000000000     -1.432500000000000
H       4.409700000000000     -2.970900000000000     -1.392400000000000
H       4.066100000000000     -1.756300000000000     -2.629200000000000
H       2.024900000000000     -3.077600000000000     -0.872600000000000
H       1.064200000000000     -1.686000000000000     -0.433500000000000
H       1.665700000000000     -1.832100000000000     -2.071800000000000
H       2.723500000000000      2.802200000000000      0.240000000000000
H       1.920800000000000      2.559300000000000     -1.308800000000000
H       0.497500000000000      2.744400000000000      1.407900000000000
H       0.569100000000000      3.989800000000000      0.150900000000000
H      -1.841600000000000      2.731500000000000      1.231300000000000
H      -1.804100000000000      3.903000000000000     -0.073400000000000
H      -3.861500000000000      2.577100000000000     -0.284400000000000
H      -2.786700000000000      2.388300000000000     -1.681500000000000
H      -4.902100000000000     -1.625900000000000      0.800000000000000
H      -3.874200000000000      0.735600000000000      1.430500000000000
H      -2.109700000000000      0.774700000000000      1.561100000000000
H      -3.832200000000000      0.318100000000000     -2.268400000000000
H      -4.916400000000000      0.419000000000000     -0.876400000000000
H      -1.844900000000000     -1.496000000000000      0.889200000000000
H      -2.946600000000000     -1.382200000000000      2.259900000000000
H      -4.699700000000000     -1.907800000000000     -1.628400000000000
H      -2.941700000000000     -1.824900000000000     -1.542400000000000
H      -2.784000000000000     -3.737200000000000      0.130900000000000
H      -3.816000000000000     -3.715600000000000      1.571200000000000
H      -4.537800000000000     -3.932400000000000     -0.030600000000000
