56

O       0.513300000000000      2.192500000000000      0.558900000000000
N       2.821700000000000      0.586700000000000      0.222700000000000
C      -3.250600000000000      0.114200000000000      0.764200000000000
C      -3.260200000000000     -1.426800000000000      0.537600000000000
C      -3.758700000000000     -1.077900000000000     -0.893200000000000
C      -4.477800000000000      0.125400000000000     -0.204700000000000
C      -1.968100000000000      0.750700000000000      0.197800000000000
C      -2.595800000000000     -0.692200000000000     -1.814100000000000
C      -1.955400000000000      0.616700000000000     -1.337000000000000
C      -4.290100000000000     -2.165400000000000      1.382500000000000
C      -1.949100000000000     -2.174000000000000      0.663600000000000
C      -1.879600000000000      2.214800000000000      0.618000000000000
C      -0.628100000000000      2.885400000000000      0.072700000000000
C       1.719300000000000      2.774700000000000      0.081800000000000
C       2.895200000000000      1.987500000000000      0.637900000000000
C       3.791200000000000     -1.683800000000000      0.484400000000000
C       3.889300000000000     -0.196300000000000      0.862900000000000
C       2.890000000000000      0.480900000000000     -1.240900000000000
C       3.817000000000000     -1.855400000000000     -1.038300000000000
C       2.759400000000000     -0.973400000000000     -1.693400000000000
C       4.917100000000000     -2.484400000000000      1.136400000000000
H      -3.466400000000000      0.418900000000000      1.794400000000000
H      -4.421600000000000     -1.820000000000000     -1.350300000000000
H      -5.456000000000000     -0.077800000000000      0.241100000000000
H      -4.603800000000000      1.025500000000000     -0.815400000000000
H      -1.093500000000000      0.246500000000000      0.621800000000000
H      -2.976700000000000     -0.536200000000000     -2.831100000000000
H      -1.860400000000000     -1.498100000000000     -1.899400000000000
H      -0.934800000000000      0.689800000000000     -1.730200000000000
H      -2.515400000000000      1.448400000000000     -1.785600000000000
H      -5.289800000000000     -1.724900000000000      1.386300000000000
H      -4.408600000000000     -3.197900000000000      1.032500000000000
H      -3.969100000000000     -2.209900000000000      2.430200000000000
H      -2.065200000000000     -3.216000000000000      0.342200000000000
H      -1.119400000000000     -1.770500000000000      0.080000000000000
H      -1.612200000000000     -2.191300000000000      1.707000000000000
H      -2.767000000000000      2.767300000000000      0.286500000000000
H      -1.865800000000000      2.266000000000000      1.714300000000000
H      -0.624700000000000      2.907200000000000     -1.022200000000000
H      -0.597600000000000      3.922100000000000      0.428800000000000
H       1.719400000000000      2.854400000000000     -1.009500000000000
H       1.783900000000000      3.799500000000000      0.469400000000000
H       3.837800000000000      2.453600000000000      0.325200000000000
H       2.847400000000000      2.034500000000000      1.733300000000000
H       2.836700000000000     -2.076500000000000      0.861300000000000
H       3.800300000000000     -0.111100000000000      1.953400000000000
H       4.876800000000000      0.198100000000000      0.586600000000000
H       2.064700000000000      1.007100000000000     -1.728200000000000
H       3.827100000000000      0.905700000000000     -1.623800000000000
H       3.640800000000000     -2.903700000000000     -1.306100000000000
H       4.806100000000000     -1.586100000000000     -1.430400000000000
H       2.855000000000000     -1.032400000000000     -2.783700000000000
H       1.760200000000000     -1.350300000000000     -1.439400000000000
H       4.878800000000000     -2.390500000000000      2.226700000000000
H       4.831100000000000     -3.547500000000000      0.888200000000000
H       5.899900000000000     -2.136500000000000      0.800800000000000
