56

O      -4.175900000000000     -1.249400000000000      1.218900000000000
N      -2.146100000000000     -1.783400000000000      0.214700000000000
C      -0.581500000000000     -3.950700000000000     -0.912400000000000
C      -1.787200000000000     -4.218000000000000     -0.015600000000000
C      -0.738000000000000     -2.619200000000000     -1.641800000000000
C      -2.026900000000000     -3.052700000000000      0.938600000000000
C      -1.013000000000000     -1.471700000000000     -0.670200000000000
C       1.583200000000000      3.412100000000000     -0.480500000000000
C       2.029600000000000      2.090500000000000      0.153400000000000
C       0.230500000000000      3.953100000000000     -0.005200000000000
C       3.424600000000000      1.646600000000000     -0.292600000000000
C      -0.982900000000000      3.067000000000000     -0.302300000000000
C       3.903500000000000      0.366400000000000      0.400700000000000
C      -2.310600000000000      3.679300000000000      0.149800000000000
C      -3.259600000000000     -0.977400000000000      0.441200000000000
C       5.286700000000000     -0.141000000000000     -0.019200000000000
C      -3.492400000000000      2.793700000000000     -0.253500000000000
C       5.737900000000000     -1.384000000000000      0.748100000000000
C      -3.349100000000000      0.297500000000000     -0.298300000000000
C      -3.405500000000000      1.441400000000000      0.393600000000000
C       7.072500000000000     -1.900100000000000      0.232600000000000
H       0.332100000000000     -3.932300000000000     -0.305700000000000
H      -0.470300000000000     -4.762800000000000     -1.639200000000000
H      -2.676300000000000     -4.367900000000000     -0.640500000000000
H      -1.630500000000000     -5.140500000000000      0.554100000000000
H       0.165600000000000     -2.404500000000000     -2.222900000000000
H      -1.569800000000000     -2.696200000000000     -2.353300000000000
H      -2.922600000000000     -3.247500000000000      1.536900000000000
H      -1.186400000000000     -2.950200000000000      1.635500000000000
H      -0.141400000000000     -1.305000000000000     -0.025700000000000
H      -1.181000000000000     -0.547900000000000     -1.228300000000000
H       1.553200000000000      3.292000000000000     -1.570700000000000
H       2.343800000000000      4.175600000000000     -0.274000000000000
H       1.312500000000000      1.300300000000000     -0.097000000000000
H       2.017000000000000      2.197900000000000      1.245000000000000
H       0.073000000000000      4.932200000000000     -0.474900000000000
H       0.283300000000000      4.133800000000000      1.075700000000000
H       4.143600000000000      2.449500000000000     -0.088900000000000
H       3.423800000000000      1.489700000000000     -1.378100000000000
H      -0.834200000000000      2.101800000000000      0.193600000000000
H      -1.020200000000000      2.870100000000000     -1.381000000000000
H       3.169100000000000     -0.428400000000000      0.217700000000000
H       3.908200000000000      0.538500000000000      1.484600000000000
H      -2.300100000000000      3.828200000000000      1.236600000000000
H      -2.435900000000000      4.667500000000000     -0.308500000000000
H       6.021800000000000      0.660000000000000      0.127100000000000
H       5.269000000000000     -0.360800000000000     -1.093900000000000
H      -3.536600000000000      2.708300000000000     -1.346100000000000
H      -4.425000000000000      3.273500000000000      0.065400000000000
H       4.985400000000000     -2.174700000000000      0.648800000000000
H       5.824700000000000     -1.150100000000000      1.815300000000000
H      -3.333200000000000      0.271300000000000     -1.381300000000000
H      -3.405600000000000      1.420400000000000      1.481100000000000
H       7.378700000000000     -2.787000000000000      0.796100000000000
H       7.005100000000000     -2.176200000000000     -0.824600000000000
H       7.854500000000000     -1.141800000000000      0.341000000000000
