56

O       5.449000000000000     -1.856300000000000      0.290500000000000
N      -2.676300000000000     -1.594800000000000      1.353100000000000
C       0.183200000000000      0.259500000000000     -0.350000000000000
C       1.681100000000000     -0.035300000000000     -0.402100000000000
C      -0.047300000000000      1.693300000000000      0.123600000000000
C      -0.524200000000000     -0.772600000000000      0.547100000000000
C       2.304000000000000      0.074700000000000      0.996700000000000
C       1.940000000000000     -1.420700000000000     -1.010300000000000
C       0.667400000000000      2.690100000000000     -0.798800000000000
C      -1.548300000000000      2.002800000000000      0.204100000000000
C      -2.000800000000000     -0.970200000000000      0.208700000000000
C       3.790400000000000     -0.269100000000000      0.978500000000000
C       3.427400000000000     -1.760500000000000     -1.022600000000000
C       0.407900000000000      4.134500000000000     -0.376600000000000
C      -1.804100000000000      3.448300000000000      0.624500000000000
C       4.043600000000000     -1.645900000000000      0.370100000000000
C      -1.085000000000000      4.435900000000000     -0.289300000000000
C      -2.153400000000000     -1.833900000000000     -1.051000000000000
C      -3.623000000000000     -2.107900000000000     -1.358300000000000
C      -4.102200000000000     -1.795800000000000      1.094400000000000
C      -4.329300000000000     -2.676100000000000     -0.132200000000000
H      -0.199400000000000      0.168900000000000     -1.374500000000000
H       2.194300000000000      0.662100000000000     -1.071500000000000
H       0.337400000000000      1.831900000000000      1.140800000000000
H      -0.448900000000000     -0.415900000000000      1.585000000000000
H      -0.058400000000000     -1.758200000000000      0.567300000000000
H       1.813200000000000     -0.597400000000000      1.709100000000000
H       2.221800000000000      1.088600000000000      1.398200000000000
H       1.558000000000000     -1.450800000000000     -2.038200000000000
H       1.448700000000000     -2.234100000000000     -0.473700000000000
H       1.753000000000000      2.565400000000000     -0.776600000000000
H       0.340200000000000      2.549500000000000     -1.836600000000000
H      -2.014400000000000      1.426700000000000      1.006400000000000
H      -2.043000000000000      1.819800000000000     -0.756500000000000
H      -2.540800000000000     -0.060400000000000     -0.016900000000000
H       4.342900000000000      0.493100000000000      0.413200000000000
H       4.197700000000000     -0.234100000000000      1.996300000000000
H       3.578400000000000     -2.773900000000000     -1.414100000000000
H       3.956900000000000     -1.095200000000000     -1.717100000000000
H       0.879600000000000      4.818400000000000     -1.091400000000000
H       0.875000000000000      4.320000000000000      0.598600000000000
H      -1.462800000000000      3.596800000000000      1.656800000000000
H      -2.881000000000000      3.651800000000000      0.613300000000000
H       3.626600000000000     -2.418000000000000      1.027700000000000
H      -1.234500000000000      5.456700000000000      0.080000000000000
H      -1.525400000000000      4.391000000000000     -1.292900000000000
H      -1.631900000000000     -2.791200000000000     -0.919300000000000
H      -1.701300000000000     -1.344500000000000     -1.920200000000000
H      -2.569200000000000     -1.003300000000000      2.177000000000000
H      -3.707100000000000     -2.807300000000000     -2.197400000000000
H      -4.113800000000000     -1.176100000000000     -1.665300000000000
H      -4.603900000000000     -0.828700000000000      0.966900000000000
H      -4.555100000000000     -2.276700000000000      1.968300000000000
H      -5.403000000000000     -2.765500000000000     -0.331600000000000
H      -3.955400000000000     -3.688400000000000      0.067400000000000
H       5.591900000000000     -2.737600000000000     -0.094900000000000
