56

O       4.246800000000000     -1.258200000000000     -0.866500000000000
N       3.808800000000000      0.843400000000000      0.040700000000000
C      -3.560400000000000     -2.256300000000000      0.235400000000000
C      -3.397200000000000     -0.885800000000000      0.925600000000000
C      -3.473700000000000      0.295900000000000     -0.048900000000000
C      -3.379700000000000      1.631700000000000      0.696700000000000
C      -3.478100000000000      2.859100000000000     -0.228100000000000
C      -2.507000000000000     -2.454300000000000     -0.878700000000000
C      -3.536800000000000     -3.416000000000000      1.236700000000000
C      -4.798300000000000      2.905700000000000     -0.998700000000000
C      -3.314200000000000      4.141000000000000      0.592500000000000
C      -1.077500000000000     -2.466100000000000     -0.407000000000000
C      -0.161900000000000     -1.564900000000000     -0.798400000000000
C       1.243900000000000     -1.512700000000000     -0.395000000000000
C       2.014900000000000     -0.527500000000000     -0.895300000000000
C       3.456500000000000     -0.363900000000000     -0.564700000000000
C       1.732800000000000     -2.552300000000000      0.581500000000000
C       5.192100000000000      1.170600000000000      0.384200000000000
C       2.823700000000000      1.863800000000000      0.373500000000000
C       5.539600000000000      0.709500000000000      1.784500000000000
C       2.625700000000000      2.837300000000000     -0.769900000000000
H      -4.546200000000000     -2.271800000000000     -0.249200000000000
H      -2.448500000000000     -0.848500000000000      1.474900000000000
H      -4.190800000000000     -0.779300000000000      1.676500000000000
H      -2.662700000000000      0.259300000000000     -0.781500000000000
H      -4.418900000000000      0.229300000000000     -0.597400000000000
H      -2.426900000000000      1.667600000000000      1.240600000000000
H      -4.174700000000000      1.680500000000000      1.452100000000000
H      -2.657600000000000      2.817200000000000     -0.955600000000000
H      -2.694900000000000     -3.423600000000000     -1.360500000000000
H      -2.652500000000000     -1.716600000000000     -1.676000000000000
H      -2.615500000000000     -3.426100000000000      1.827500000000000
H      -4.374600000000000     -3.328400000000000      1.936900000000000
H      -3.629900000000000     -4.379400000000000      0.724600000000000
H      -5.656600000000000      2.844600000000000     -0.321200000000000
H      -4.883100000000000      3.838700000000000     -1.566500000000000
H      -4.870600000000000      2.086500000000000     -1.720100000000000
H      -4.114600000000000      4.244500000000000      1.333100000000000
H      -2.357000000000000      4.142300000000000      1.124600000000000
H      -3.335500000000000      5.023700000000000     -0.055400000000000
H      -0.803500000000000     -3.273500000000000      0.265600000000000
H      -0.484400000000000     -0.785500000000000     -1.487600000000000
H       1.606000000000000      0.202200000000000     -1.587600000000000
H       5.852800000000000      0.663400000000000     -0.327800000000000
H       5.354700000000000      2.247900000000000      0.273200000000000
H       1.866000000000000      1.403500000000000      0.635900000000000
H       3.155800000000000      2.401600000000000      1.269100000000000
H       1.680400000000000     -3.551900000000000      0.136700000000000
H       2.766800000000000     -2.392900000000000      0.899300000000000
H       1.127100000000000     -2.539700000000000      1.494700000000000
H       4.908100000000000      1.199500000000000      2.532500000000000
H       5.400300000000000     -0.371600000000000      1.889700000000000
H       6.583600000000000      0.943100000000000      2.014700000000000
H       3.554700000000000      3.370700000000000     -0.997200000000000
H       2.303700000000000      2.340100000000000     -1.688700000000000
H       1.868500000000000      3.582100000000000     -0.505000000000000
