56

O       0.581200000000000     -4.203500000000000     -0.217600000000000
N       0.924300000000000     -0.554800000000000      0.360900000000000
C       2.214500000000000      0.148600000000000      0.090600000000000
C       2.051000000000000      1.665400000000000     -0.190500000000000
C       2.820300000000000     -0.622100000000000     -1.099200000000000
C      -0.265000000000000      0.294800000000000      0.127800000000000
C       0.928500000000000     -1.844500000000000     -0.366200000000000
C       3.102600000000000      0.005600000000000      1.357100000000000
C       1.056100000000000      1.938400000000000     -1.321900000000000
C       2.351400000000000     -2.040600000000000     -0.876600000000000
C       3.403100000000000      2.349400000000000     -0.424400000000000
C      -0.190600000000000      1.054400000000000     -1.210700000000000
C       4.450600000000000      0.725300000000000      1.229800000000000
C       4.304400000000000      2.182600000000000      0.798800000000000
C      -1.608900000000000     -0.430900000000000      0.261500000000000
C       0.520800000000000     -3.006100000000000      0.535500000000000
C      -2.771800000000000      0.549900000000000      0.172700000000000
C      -4.111900000000000     -0.182000000000000      0.276400000000000
C      -5.285900000000000      0.791400000000000      0.149700000000000
C      -6.652300000000000      0.106300000000000      0.222800000000000
C      -7.822500000000000      1.072500000000000      0.123300000000000
H       1.630300000000000      2.135500000000000      0.712200000000000
H       3.910000000000000     -0.573300000000000     -1.163300000000000
H       2.424000000000000     -0.269500000000000     -2.058000000000000
H      -0.265400000000000      1.042100000000000      0.933900000000000
H       0.283400000000000     -1.814300000000000     -1.253400000000000
H       2.569600000000000      0.425000000000000      2.222000000000000
H       3.287800000000000     -1.047600000000000      1.600100000000000
H       0.759900000000000      2.994800000000000     -1.285200000000000
H       1.519800000000000      1.795500000000000     -2.305100000000000
H       2.384700000000000     -2.624100000000000     -1.802500000000000
H       2.991900000000000     -2.540200000000000     -0.140200000000000
H       3.254200000000000      3.419100000000000     -0.614700000000000
H       3.898400000000000      1.937600000000000     -1.311500000000000
H      -1.040300000000000      1.722500000000000     -1.365100000000000
H      -0.207200000000000      0.346400000000000     -2.048700000000000
H       5.090800000000000      0.198100000000000      0.514000000000000
H       4.973700000000000      0.684100000000000      2.192500000000000
H       5.293000000000000      2.606800000000000      0.590000000000000
H       3.884900000000000      2.759400000000000      1.632700000000000
H      -1.727200000000000     -1.191300000000000     -0.518700000000000
H      -1.654500000000000     -0.942600000000000      1.230600000000000
H       1.175400000000000     -3.103600000000000      1.409000000000000
H      -0.503700000000000     -2.898200000000000      0.898700000000000
H      -2.695200000000000      1.301600000000000      0.967100000000000
H      -2.786000000000000      1.077900000000000     -0.783200000000000
H      -4.173400000000000     -0.707400000000000      1.237100000000000
H      -4.182200000000000     -0.940500000000000     -0.512800000000000
H       1.517000000000000     -4.426800000000000     -0.355200000000000
H      -5.218600000000000      1.543000000000000      0.946000000000000
H      -5.209900000000000      1.331600000000000     -0.802300000000000
H      -6.730700000000000     -0.446400000000000      1.166700000000000
H      -6.731900000000000     -0.631400000000000     -0.584500000000000
H      -8.770700000000000      0.529000000000000      0.180800000000000
H      -7.798200000000000      1.617600000000000     -0.825600000000000
H      -7.796800000000000      1.801600000000000      0.939200000000000
