56

O      -0.781800000000000     -2.009100000000000      0.593300000000000
N      -2.902400000000000     -0.134100000000000      0.576600000000000
C       3.206900000000000     -0.391500000000000      0.648200000000000
C       3.382400000000000      1.152600000000000      0.543000000000000
C       3.729900000000000      0.876400000000000     -0.947200000000000
C       4.349800000000000     -0.455500000000000     -0.416800000000000
C       1.819900000000000     -0.828300000000000      0.142000000000000
C       2.465300000000000      0.705200000000000     -1.795800000000000
C       1.711000000000000     -0.560300000000000     -1.371300000000000
C       4.551700000000000      1.694500000000000      1.354900000000000
C       2.182000000000000      2.028100000000000      0.835200000000000
C       1.589500000000000     -2.304400000000000      0.452200000000000
C       0.230800000000000     -2.780300000000000     -0.038500000000000
C      -2.080000000000000     -2.408400000000000      0.173500000000000
C      -3.110400000000000     -1.546100000000000      0.885000000000000
C      -2.845000000000000      0.140400000000000     -0.872000000000000
C      -3.866100000000000      0.709600000000000      1.292000000000000
C      -2.509500000000000      1.626100000000000     -1.104400000000000
C      -3.558800000000000      2.194300000000000      1.096200000000000
C      -3.471400000000000      2.562800000000000     -0.379500000000000
C      -4.093800000000000     -0.272100000000000     -1.666700000000000
H       3.459800000000000     -0.807200000000000      1.629900000000000
H       4.440900000000000      1.576600000000000     -1.398000000000000
H       4.323200000000000     -1.307200000000000     -1.104500000000000
H       5.375300000000000     -0.402900000000000     -0.039000000000000
H       1.044600000000000     -0.268200000000000      0.674900000000000
H       2.749400000000000      0.597100000000000     -2.850000000000000
H       1.826200000000000      1.592700000000000     -1.756600000000000
H       0.663200000000000     -0.484100000000000     -1.683800000000000
H       2.134400000000000     -1.407200000000000     -1.928200000000000
H       4.315900000000000      1.683000000000000      2.425900000000000
H       5.489700000000000      1.146200000000000      1.241400000000000
H       4.765900000000000      2.733800000000000      1.078100000000000
H       1.269900000000000      1.772600000000000      0.292500000000000
H       1.926800000000000      1.992000000000000      1.901100000000000
H       2.396900000000000      3.074700000000000      0.587700000000000
H       2.378500000000000     -2.921900000000000      0.006200000000000
H       1.650000000000000     -2.449200000000000      1.538500000000000
H       0.144700000000000     -2.705700000000000     -1.127800000000000
H       0.103700000000000     -3.834200000000000      0.236600000000000
H      -2.169500000000000     -2.396100000000000     -0.917300000000000
H      -2.236900000000000     -3.448900000000000      0.485900000000000
H      -4.121900000000000     -1.879900000000000      0.625800000000000
H      -2.986900000000000     -1.688500000000000      1.966200000000000
H      -1.991300000000000     -0.384200000000000     -1.315000000000000
H      -4.894400000000000      0.496800000000000      0.975100000000000
H      -3.816500000000000      0.498600000000000      2.367500000000000
H      -1.489400000000000      1.822100000000000     -0.746400000000000
H      -2.510300000000000      1.856200000000000     -2.176600000000000
H      -2.607200000000000      2.436700000000000      1.586700000000000
H      -4.330700000000000      2.800100000000000      1.584100000000000
H      -4.466700000000000      2.506500000000000     -0.835100000000000
H      -3.132300000000000      3.599400000000000     -0.484900000000000
H      -3.975100000000000     -0.006600000000000     -2.723300000000000
H      -4.262200000000000     -1.352500000000000     -1.628600000000000
H      -5.001000000000000      0.222000000000000     -1.306600000000000
