56

O      -3.417700000000000      1.712800000000000      0.390900000000000
N      -4.586400000000000      0.206300000000000     -0.938900000000000
C       3.368400000000000     -1.836700000000000      0.130700000000000
C       3.336800000000000     -0.639300000000000     -0.845500000000000
C       4.666600000000000      0.102100000000000     -1.033100000000000
C       5.221700000000000      0.796100000000000      0.216700000000000
C       6.595200000000000      1.474000000000000      0.051300000000000
C       1.984200000000000     -2.517600000000000      0.225300000000000
C       4.411900000000000     -2.877100000000000     -0.290000000000000
C       6.511100000000000      2.552900000000000     -1.032100000000000
C       7.101200000000000      2.090600000000000      1.355800000000000
C       0.904300000000000     -1.586400000000000      0.706600000000000
C      -0.184600000000000     -1.277600000000000     -0.016400000000000
C      -6.749000000000000      0.421500000000000      0.245000000000000
C      -5.864100000000000      0.882100000000000     -0.918600000000000
C      -1.270300000000000     -0.373300000000000      0.371900000000000
C      -7.018900000000000     -1.079600000000000      0.136100000000000
C      -8.072900000000001      1.188200000000000      0.285500000000000
C      -2.283900000000000     -0.191900000000000     -0.498300000000000
C      -3.468800000000000      0.686300000000000     -0.276900000000000
C      -1.184700000000000      0.266600000000000      1.733900000000000
H       3.634700000000000     -1.473900000000000      1.131300000000000
H       2.594600000000000      0.094700000000000     -0.509500000000000
H       3.000800000000000     -0.990600000000000     -1.829900000000000
H       5.421900000000000     -0.577900000000000     -1.442300000000000
H       4.494500000000000      0.858400000000000     -1.808300000000000
H       4.488200000000000      1.534400000000000      0.565900000000000
H       5.315100000000000      0.055300000000000      1.019700000000000
H       7.322900000000000      0.718300000000000     -0.270000000000000
H       2.039300000000000     -3.357000000000000      0.930000000000000
H       1.718700000000000     -2.947500000000000     -0.749100000000000
H       4.247600000000000     -3.211200000000000     -1.319900000000000
H       5.427300000000000     -2.476500000000000     -0.216100000000000
H       4.367600000000000     -3.756700000000000      0.361500000000000
H       5.718400000000000      3.277100000000000     -0.815400000000000
H       7.456500000000000      3.102200000000000     -1.103300000000000
H       6.322800000000000      2.119000000000000     -2.018700000000000
H       6.420200000000000      2.868700000000000      1.716900000000000
H       7.185900000000000      1.326800000000000      2.135800000000000
H       8.090100000000000      2.540300000000000      1.218400000000000
H       1.058200000000000     -1.161900000000000      1.694500000000000
H      -0.278300000000000     -1.734700000000000     -1.000900000000000
H      -6.220700000000000      0.603600000000000      1.189700000000000
H      -6.349700000000000      0.682600000000000     -1.880500000000000
H      -5.688600000000000      1.961900000000000     -0.851200000000000
H      -7.503500000000000     -1.330100000000000     -0.814000000000000
H      -7.677200000000000     -1.412900000000000      0.945900000000000
H      -6.094800000000000     -1.661700000000000      0.211500000000000
H      -8.651700000000000      1.029100000000000     -0.630600000000000
H      -7.892900000000000      2.263200000000000      0.390400000000000
H      -8.684500000000000      0.866000000000000      1.134800000000000
H      -4.525000000000000     -0.658300000000000     -1.469300000000000
H      -2.281300000000000     -0.720600000000000     -1.450400000000000
H      -0.998200000000000     -0.488900000000000      2.505900000000000
H      -0.373700000000000      1.002200000000000      1.760400000000000
H      -2.101300000000000      0.770000000000000      2.045300000000000
