57

N       2.964800000000000     -0.205700000000000      0.247100000000000
N       0.156800000000000     -0.860600000000000      0.035100000000000
C       4.250800000000000      0.206700000000000     -0.311600000000000
C      -4.773600000000000     -0.202300000000000     -0.215000000000000
C       4.729900000000000      1.490000000000000      0.376300000000000
C       5.274800000000000     -0.922100000000000     -0.150600000000000
C       1.951400000000000      0.837900000000000      0.049300000000000
C       2.519900000000000     -1.472000000000000     -0.347800000000000
C       0.601100000000000      0.405400000000000      0.630900000000000
C       1.169900000000000     -1.904100000000000      0.235000000000000
C       6.109300000000000      1.910100000000000     -0.128400000000000
C       6.653300000000000     -0.498900000000000     -0.655300000000000
C      -3.629200000000000     -0.964800000000000      0.450100000000000
C      -6.092800000000000     -0.973700000000000     -0.074000000000000
C      -4.900000000000000      1.208600000000000      0.375200000000000
C       7.129500000000000      0.784800000000000      0.018800000000000
C      -1.130000000000000     -1.273000000000000      0.591900000000000
C      -2.271000000000000     -0.532000000000000     -0.103200000000000
C      -7.262800000000000     -0.206000000000000     -0.685100000000000
C      -6.072000000000000      1.972700000000000     -0.236500000000000
C      -7.379900000000000      1.198900000000000     -0.102300000000000
H       4.141800000000000      0.413500000000000     -1.386500000000000
H      -4.563200000000000     -0.110700000000000     -1.289700000000000
H       4.769700000000000      1.350400000000000      1.464500000000000
H       4.069000000000000      2.339200000000000      0.178000000000000
H       5.012600000000000     -1.808200000000000     -0.737100000000000
H       5.352000000000000     -1.227600000000000      0.901000000000000
H       2.206200000000000      1.759200000000000      0.580400000000000
H       1.836100000000000      1.083400000000000     -1.015000000000000
H       2.448000000000000     -1.396200000000000     -1.441100000000000
H       3.196200000000000     -2.297100000000000     -0.106900000000000
H       0.685600000000000      0.316300000000000      1.722900000000000
H      -0.118300000000000      1.205600000000000      0.426200000000000
H       1.282700000000000     -2.138500000000000      1.302500000000000
H       0.859600000000000     -2.826300000000000     -0.271700000000000
H       6.039400000000000      2.202800000000000     -1.183500000000000
H       6.452200000000000      2.791700000000000      0.425200000000000
H       7.376600000000000     -1.301200000000000     -0.470400000000000
H       6.615100000000000     -0.347300000000000     -1.741200000000000
H      -3.745000000000000     -2.040200000000000      0.263100000000000
H      -3.658500000000000     -0.831600000000000      1.538600000000000
H      -6.011000000000000     -1.951400000000000     -0.563900000000000
H      -6.300600000000000     -1.165500000000000      0.986600000000000
H      -5.040800000000000      1.148900000000000      1.462100000000000
H      -3.984400000000000      1.785000000000000      0.205600000000000
H       7.307900000000000      0.592100000000000      1.083900000000000
H       8.086800000000000      1.095700000000000     -0.414400000000000
H      -1.288000000000000     -2.345000000000000      0.412600000000000
H      -1.168400000000000     -1.132200000000000      1.679700000000000
H      -2.153600000000000      0.547600000000000      0.028400000000000
H      -2.235700000000000     -0.729100000000000     -1.182400000000000
H      -8.194699999999999     -0.755700000000000     -0.511400000000000
H      -7.128300000000000     -0.140500000000000     -1.771800000000000
H      -6.170400000000000      2.949000000000000      0.251600000000000
H      -5.868400000000000      2.164900000000000     -1.297200000000000
H      -8.184300000000000      1.743000000000000     -0.609900000000000
H      -7.657400000000000      1.132500000000000      0.956900000000000
