57

N      -2.736900000000000     -0.288200000000000      0.177600000000000
N      -7.541100000000000      0.796400000000000      0.330600000000000
C      -0.328100000000000     -0.768100000000000      0.195600000000000
C       0.811300000000000     -1.691500000000000     -0.291200000000000
C       2.150900000000000     -1.261400000000000      0.344200000000000
C      -0.020200000000000      0.692700000000000     -0.186600000000000
C      -1.701900000000000     -1.160300000000000     -0.352500000000000
C       2.386500000000000      0.227400000000000      0.333900000000000
C       1.398000000000000      1.099600000000000      0.078000000000000
C       0.558200000000000     -3.171400000000000      0.005600000000000
C       3.785900000000000      0.678800000000000      0.630600000000000
C      -4.047100000000000     -0.650300000000000     -0.348800000000000
C       4.633900000000000      0.744500000000000     -0.636000000000000
C      -5.125900000000000      0.250900000000000      0.254600000000000
C      -6.532900000000000     -0.086300000000000     -0.243600000000000
C       5.997800000000000      1.302800000000000     -0.340000000000000
C       7.123200000000000      0.620500000000000     -0.056000000000000
C      -8.873500000000000      0.200300000000000      0.216700000000000
C      -7.513500000000000      2.105700000000000     -0.323900000000000
C       8.460400000000000      1.242100000000000      0.231800000000000
C       7.114900000000000     -0.884500000000000     -0.020500000000000
H      -0.364400000000000     -0.834100000000000      1.293700000000000
H       0.903200000000000     -1.584800000000000     -1.381600000000000
H       2.963600000000000     -1.765000000000000     -0.194200000000000
H       2.197800000000000     -1.606100000000000      1.385600000000000
H      -0.672200000000000      1.367200000000000      0.381600000000000
H      -0.228000000000000      0.865500000000000     -1.250200000000000
H      -1.934600000000000     -2.192100000000000     -0.068000000000000
H      -1.687200000000000     -1.114000000000000     -1.448600000000000
H       1.610900000000000      2.165300000000000      0.058400000000000
H       0.330400000000000     -3.331100000000000      1.064700000000000
H      -0.273000000000000     -3.562000000000000     -0.589100000000000
H       1.439100000000000     -3.772800000000000     -0.244800000000000
H       3.759800000000000      1.668500000000000      1.107200000000000
H       4.242100000000000      0.008500000000000      1.370400000000000
H      -2.746100000000000     -0.342100000000000      1.195800000000000
H      -4.278400000000000     -1.695600000000000     -0.110900000000000
H      -4.057200000000000     -0.542100000000000     -1.439900000000000
H       4.158600000000000      1.405000000000000     -1.373400000000000
H       4.694100000000000     -0.233300000000000     -1.125600000000000
H      -4.872800000000000      1.290200000000000      0.014200000000000
H      -5.104100000000000      0.166100000000000      1.349500000000000
H      -6.566200000000000     -0.074800000000000     -1.341100000000000
H      -6.734400000000000     -1.122800000000000      0.059000000000000
H       6.055300000000000      2.390500000000000     -0.345700000000000
H      -9.627599999999999      0.852300000000000      0.671700000000000
H      -9.157000000000000      0.019800000000000     -0.826600000000000
H      -8.919000000000000     -0.751500000000000      0.757700000000000
H      -6.562500000000000      2.621600000000000     -0.162300000000000
H      -8.283300000000001      2.759300000000000      0.102900000000000
H      -7.692300000000000      2.034700000000000     -1.403200000000000
H       8.798000000000000      0.974300000000000      1.238000000000000
H       9.205399999999999      0.896600000000000     -0.492000000000000
H       8.417899999999999      2.334600000000000      0.172900000000000
H       7.659200000000000     -1.282100000000000     -0.883400000000000
H       7.615700000000000     -1.237000000000000      0.888400000000000
H       6.118900000000000     -1.332400000000000     -0.010700000000000
