57

N      -0.470200000000000      1.784100000000000     -0.009100000000000
N      -1.232000000000000     -0.940400000000000     -0.474600000000000
C       1.697700000000000     -0.272600000000000     -0.349100000000000
C       0.762700000000000     -0.224300000000000      0.899000000000000
C       0.770400000000000      0.186200000000000     -1.517800000000000
C       2.934700000000000      0.670000000000000     -0.218300000000000
C       2.273000000000000     -1.697400000000000     -0.622500000000000
C       0.245100000000000      1.220600000000000      1.142900000000000
C       0.253700000000000      1.631300000000000     -1.277500000000000
C      -0.432600000000000     -1.202700000000000      0.728800000000000
C      -0.423600000000000     -0.792100000000000     -1.691400000000000
C       3.934700000000000      0.222200000000000      0.848500000000000
C       3.266400000000000     -2.170100000000000      0.439700000000000
C       4.425000000000000     -1.196700000000000      0.599600000000000
C      -0.844900000000000      3.175100000000000      0.225600000000000
C      -2.276800000000000     -1.944800000000000     -0.648900000000000
C      -3.295100000000000     -1.939600000000000      0.504200000000000
C      -1.719900000000000      3.285500000000000      1.467500000000000
C      -1.546300000000000      3.753500000000000     -0.997100000000000
C      -3.932400000000000     -0.552700000000000      0.624200000000000
C      -4.389600000000000     -2.995100000000000      0.326100000000000
H       1.311900000000000     -0.531400000000000      1.796600000000000
H       1.342000000000000      0.186000000000000     -2.455500000000000
H       2.654300000000000      1.703100000000000      0.002100000000000
H       3.453700000000000      0.707900000000000     -1.186100000000000
H       2.782800000000000     -1.691500000000000     -1.595900000000000
H       1.492000000000000     -2.457000000000000     -0.707700000000000
H      -0.422400000000000      1.158100000000000      2.009900000000000
H       1.079000000000000      1.865800000000000      1.443400000000000
H       1.089500000000000      2.338000000000000     -1.342100000000000
H      -0.406500000000000      1.850800000000000     -2.124500000000000
H      -0.068400000000000     -2.236700000000000      0.740100000000000
H      -1.048400000000000     -1.088300000000000      1.627500000000000
H      -1.063700000000000     -0.412400000000000     -2.498500000000000
H      -0.056300000000000     -1.766400000000000     -2.034700000000000
H       4.792200000000000      0.905300000000000      0.851600000000000
H       3.479300000000000      0.289600000000000      1.842900000000000
H       2.755500000000000     -2.301800000000000      1.400200000000000
H       3.658100000000000     -3.154500000000000      0.157700000000000
H       5.040600000000000     -1.213500000000000     -0.308400000000000
H       5.069600000000000     -1.517900000000000      1.425500000000000
H       0.053500000000000      3.783800000000000      0.399500000000000
H      -1.838600000000000     -2.946900000000000     -0.748400000000000
H      -2.819900000000000     -1.749200000000000     -1.583400000000000
H      -2.802900000000000     -2.181600000000000      1.452500000000000
H      -2.138000000000000      4.295300000000000      1.552500000000000
H      -2.564800000000000      2.588900000000000      1.432700000000000
H      -1.160900000000000      3.113200000000000      2.392700000000000
H      -0.861600000000000      3.928100000000000     -1.833600000000000
H      -1.981100000000000      4.731700000000000     -0.759500000000000
H      -2.368000000000000      3.112600000000000     -1.337100000000000
H      -4.414500000000000     -0.252500000000000     -0.312600000000000
H      -4.697100000000000     -0.547200000000000      1.408900000000000
H      -3.197300000000000      0.212100000000000      0.890700000000000
H      -4.964600000000000     -2.818700000000000     -0.589200000000000
H      -5.085100000000000     -2.985200000000000      1.171900000000000
H      -3.951500000000000     -3.996700000000000      0.262800000000000
