57

N      -7.232300000000000     -0.396400000000000     -0.664500000000000
N      -6.190100000000000     -0.675100000000000      1.276800000000000
C       1.568800000000000      0.597100000000000      0.398000000000000
C       2.877500000000000      0.747500000000000     -0.379200000000000
C       0.378600000000000      1.113000000000000     -0.412200000000000
C       4.064200000000000      0.201800000000000      0.418400000000000
C      -0.934200000000000      0.933200000000000      0.353100000000000
C       5.367000000000000      0.323500000000000     -0.375000000000000
C      -2.117100000000000      1.483900000000000     -0.444500000000000
C       6.586500000000000     -0.229400000000000      0.368100000000000
C      -3.466800000000000      1.315800000000000      0.254700000000000
C       7.876000000000000     -0.175000000000000     -0.454300000000000
C      -4.704300000000000      1.855800000000000     -0.474400000000000
C       9.062500000000000     -0.727700000000000      0.339000000000000
C      -6.045100000000000      1.623000000000000      0.235900000000000
C      10.344400000000000     -0.710000000000000     -0.493500000000000
C      -6.471400000000000      0.177000000000000      0.316200000000000
C      11.518599999999999     -1.288700000000000      0.279600000000000
C      -7.449800000000000     -1.697000000000000     -0.306400000000000
C      -6.796700000000000     -1.845400000000000      0.894700000000000
C      -8.236599999999999     -2.627000000000000     -1.130300000000000
H       1.637200000000000      1.147200000000000      1.344400000000000
H       1.410700000000000     -0.459000000000000      0.648500000000000
H       3.046800000000000      1.805200000000000     -0.614600000000000
H       2.800300000000000      0.212100000000000     -1.333300000000000
H       0.322100000000000      0.576600000000000     -1.367300000000000
H       0.527600000000000      2.174300000000000     -0.645400000000000
H       3.887000000000000     -0.851000000000000      0.669100000000000
H       4.157800000000000      0.749000000000000      1.364100000000000
H      -0.873800000000000      1.448900000000000      1.319000000000000
H      -1.096000000000000     -0.130800000000000      0.563200000000000
H       5.545800000000000      1.377400000000000     -0.622400000000000
H       5.258500000000000     -0.210700000000000     -1.327300000000000
H      -1.953700000000000      2.550000000000000     -0.645000000000000
H      -2.161200000000000      0.983700000000000     -1.420100000000000
H       6.723600000000000      0.335600000000000      1.298400000000000
H       6.388300000000000     -1.269400000000000      0.655900000000000
H      -3.412100000000000      1.797300000000000      1.239600000000000
H      -3.611500000000000      0.245600000000000      0.447600000000000
H       8.080000000000000      0.861200000000000     -0.749300000000000
H       7.745100000000000     -0.754600000000000     -1.376000000000000
H      -4.573600000000000      2.935800000000000     -0.616400000000000
H      -4.745100000000000      1.411500000000000     -1.476900000000000
H       9.205900000000000     -0.133600000000000      1.249700000000000
H       8.845300000000000     -1.755500000000000      0.654600000000000
H      -5.993500000000000      2.027900000000000      1.253900000000000
H      -6.824700000000000      2.192500000000000     -0.285700000000000
H      10.580000000000000      0.318100000000000     -0.792000000000000
H      10.199999999999999     -1.289900000000000     -1.412600000000000
H      11.327500000000001     -2.328500000000000      0.563400000000000
H      11.710000000000001     -0.713100000000000      1.190900000000000
H      12.424799999999999     -1.265100000000000     -0.333800000000000
H      -7.571200000000000      0.058600000000000     -1.502000000000000
H      -6.731300000000000     -2.734300000000000      1.505500000000000
H      -9.259900000000000     -2.260100000000000     -1.259800000000000
H      -7.785300000000000     -2.744800000000000     -2.120700000000000
H      -8.290500000000000     -3.616700000000000     -0.665500000000000
