57

N       1.950000000000000      1.430300000000000      0.086600000000000
N      -1.933700000000000      0.267000000000000     -0.387900000000000
C       0.723300000000000     -1.078000000000000     -0.178500000000000
C       0.150700000000000     -0.041800000000000      0.876000000000000
C       0.488500000000000     -0.188400000000000     -1.426100000000000
C       2.241700000000000     -1.435500000000000      0.032700000000000
C      -0.055100000000000     -2.433300000000000     -0.292400000000000
C       1.215800000000000      0.975000000000000      1.318600000000000
C       1.251800000000000      1.212500000000000     -1.232300000000000
C      -1.384000000000000     -0.111100000000000      0.960200000000000
C      -1.096700000000000     -0.045300000000000     -1.593600000000000
C       2.624400000000000     -2.857000000000000     -0.381100000000000
C       0.426600000000000     -3.460500000000000      0.726400000000000
C       1.858800000000000     -3.895600000000000      0.431700000000000
C       2.452500000000000      2.789700000000000      0.223600000000000
C      -3.326700000000000     -0.118000000000000     -0.547800000000000
C      -4.252800000000000      0.599200000000000      0.449400000000000
C       3.151500000000000      3.227300000000000     -1.057000000000000
C       3.383500000000000      2.897200000000000      1.425000000000000
C      -4.158600000000000      2.113600000000000      0.244400000000000
C      -5.711500000000000      0.152700000000000      0.322000000000000
H       0.279300000000000     -0.659800000000000      1.788900000000000
H       0.884800000000000     -0.675500000000000     -2.326100000000000
H       2.507300000000000     -1.337900000000000      1.091900000000000
H       2.899300000000000     -0.765700000000000     -0.530100000000000
H       0.084600000000000     -2.847600000000000     -1.301000000000000
H      -1.136100000000000     -2.338000000000000     -0.189300000000000
H       0.688500000000000      1.814900000000000      1.786900000000000
H       1.928200000000000      0.568000000000000      2.044800000000000
H       1.993800000000000      1.240500000000000     -2.038300000000000
H       0.530500000000000      2.020600000000000     -1.406500000000000
H      -1.748200000000000     -1.089900000000000      1.290700000000000
H      -1.719600000000000      0.625400000000000      1.698800000000000
H      -1.289100000000000      0.730000000000000     -2.345300000000000
H      -1.454300000000000     -0.984800000000000     -2.035500000000000
H       2.426600000000000     -2.993600000000000     -1.451400000000000
H       3.701200000000000     -3.011000000000000     -0.244600000000000
H       0.362500000000000     -3.042800000000000      1.738000000000000
H      -0.227500000000000     -4.340100000000000      0.713100000000000
H       1.858200000000000     -4.844900000000000     -0.117100000000000
H       2.375000000000000     -4.088700000000000      1.379800000000000
H       1.614400000000000      3.481200000000000      0.385600000000000
H      -3.437200000000000     -1.205100000000000     -0.444600000000000
H      -3.663800000000000      0.131400000000000     -1.562900000000000
H      -3.948700000000000      0.369200000000000      1.477400000000000
H       3.917200000000000      2.508700000000000     -1.371700000000000
H       2.456000000000000      3.394400000000000     -1.886100000000000
H       3.661500000000000      4.185500000000000     -0.899700000000000
H       4.205000000000000      2.174400000000000      1.361000000000000
H       2.862300000000000      2.739600000000000      2.374600000000000
H       3.830000000000000      3.896800000000000      1.476700000000000
H      -4.431100000000000      2.395200000000000     -0.778700000000000
H      -4.838000000000000      2.637100000000000      0.926200000000000
H      -3.150600000000000      2.490500000000000      0.444700000000000
H      -6.107000000000000      0.371300000000000     -0.675600000000000
H      -6.342700000000000      0.662100000000000      1.057800000000000
H      -5.800000000000000     -0.925400000000000      0.492300000000000
