57

N      -2.109500000000000      1.390000000000000     -0.295900000000000
N      -7.839600000000000     -1.124100000000000     -0.251400000000000
C      -4.314700000000000      0.382200000000000     -0.648200000000000
C       2.520600000000000      3.075800000000000     -0.239200000000000
C      -3.303000000000000      0.896600000000000      0.375800000000000
C       3.667200000000000      2.065500000000000     -0.322300000000000
C      -5.582100000000000     -0.133300000000000      0.041500000000000
C       1.328800000000000      2.514700000000000      0.503100000000000
C      -1.145400000000000      1.906300000000000      0.670000000000000
C       3.695600000000000     -0.414600000000000     -0.951300000000000
C       3.277900000000000     -1.582700000000000     -1.820200000000000
C       3.262900000000000      0.851500000000000     -1.110900000000000
C       0.086000000000000      2.428400000000000     -0.010200000000000
C       2.688600000000000     -2.761900000000000     -1.035000000000000
C      -6.647000000000000     -0.637900000000000     -0.934500000000000
C       1.605700000000000      2.058700000000000      1.911400000000000
C       4.703700000000000     -0.737800000000000      0.121100000000000
C       1.386700000000000     -2.418100000000000     -0.365800000000000
C       1.059300000000000     -2.548000000000000      0.933600000000000
C       1.968500000000000     -3.063500000000000      2.012300000000000
C      -0.310000000000000     -2.148100000000000      1.415900000000000
H      -3.870400000000000     -0.426700000000000     -1.241700000000000
H      -4.581600000000000      1.186500000000000     -1.345100000000000
H       2.231400000000000      3.398200000000000     -1.247800000000000
H       2.870500000000000      3.975600000000000      0.281900000000000
H      -3.042800000000000      0.086500000000000      1.068200000000000
H      -3.764300000000000      1.702100000000000      0.960100000000000
H       4.505500000000000      2.545400000000000     -0.841900000000000
H       4.016700000000000      1.811600000000000      0.683000000000000
H      -5.311000000000000     -0.943800000000000      0.730300000000000
H      -6.008700000000000      0.671500000000000      0.654100000000000
H      -0.886400000000000      1.110200000000000      1.376100000000000
H      -1.598400000000000      2.734500000000000      1.227700000000000
H       2.555500000000000     -1.251600000000000     -2.577700000000000
H       4.158200000000000     -1.933300000000000     -2.374000000000000
H      -1.685700000000000      0.628400000000000     -0.826300000000000
H       2.575200000000000      1.035600000000000     -1.935900000000000
H      -0.058100000000000      2.810600000000000     -1.020700000000000
H       3.432200000000000     -3.158100000000000     -0.339700000000000
H       2.485700000000000     -3.573400000000000     -1.745600000000000
H      -6.931500000000000      0.169000000000000     -1.619200000000000
H      -6.233200000000000     -1.450500000000000     -1.541500000000000
H       2.312700000000000      2.739200000000000      2.399100000000000
H       0.714800000000000      2.049500000000000      2.545800000000000
H       2.037600000000000      1.052900000000000      1.913300000000000
H       4.202800000000000     -1.116800000000000      1.016800000000000
H       5.322900000000000      0.117500000000000      0.405400000000000
H       5.402300000000000     -1.504700000000000     -0.232400000000000
H       0.625500000000000     -2.034200000000000     -1.044600000000000
H      -8.540300000000000     -1.390500000000000     -0.941800000000000
H      -8.250700000000000     -0.370500000000000      0.298000000000000
H       2.136100000000000     -2.284600000000000      2.763900000000000
H       1.509700000000000     -3.925500000000000      2.508200000000000
H       2.946900000000000     -3.384600000000000      1.651500000000000
H      -0.822000000000000     -3.008100000000000      1.859700000000000
H      -0.229600000000000     -1.361700000000000      2.173700000000000
H      -0.942900000000000     -1.765700000000000      0.608100000000000
