57

N      -1.738100000000000     -1.384900000000000     -0.318700000000000
N      -7.310100000000000      1.315000000000000      0.239700000000000
C      -3.825900000000000     -0.223100000000000      0.215900000000000
C       2.885300000000000     -2.719100000000000     -0.682500000000000
C      -3.042200000000000     -1.002400000000000     -0.838900000000000
C       3.453900000000000     -1.822100000000000      0.427000000000000
C      -5.206500000000000      0.182300000000000     -0.307100000000000
C       1.572200000000000     -2.231000000000000     -1.254200000000000
C      -0.988700000000000     -2.152100000000000     -1.310700000000000
C       1.980900000000000     -0.572500000000000      2.126600000000000
C       2.272600000000000      0.839300000000000      1.661400000000000
C       2.523400000000000     -1.689100000000000      1.601600000000000
C       0.354300000000000     -2.561700000000000     -0.781900000000000
C       1.283100000000000      1.408400000000000      0.633300000000000
C      -6.003400000000000      0.930500000000000      0.760000000000000
C       1.695200000000000     -1.340300000000000     -2.464100000000000
C       1.065100000000000     -0.686800000000000      3.320300000000000
C       1.522000000000000      2.858300000000000      0.315600000000000
C       2.227000000000000      3.381200000000000     -0.706000000000000
C       2.926600000000000      2.596000000000000     -1.779000000000000
C       2.353500000000000      4.874100000000000     -0.858200000000000
H      -3.268100000000000      0.676100000000000      0.507100000000000
H      -3.942700000000000     -0.836800000000000      1.118200000000000
H       3.625300000000000     -2.824900000000000     -1.485600000000000
H       2.743600000000000     -3.732600000000000     -0.282700000000000
H      -2.927400000000000     -0.383100000000000     -1.737000000000000
H      -3.611600000000000     -1.897100000000000     -1.118500000000000
H       4.395700000000000     -2.256200000000000      0.783500000000000
H       3.703500000000000     -0.845600000000000     -0.000300000000000
H      -5.756300000000000     -0.714700000000000     -0.619400000000000
H      -5.089000000000000      0.814800000000000     -1.196100000000000
H      -1.536300000000000     -3.073500000000000     -1.546100000000000
H      -0.911800000000000     -1.591200000000000     -2.246400000000000
H       3.288000000000000      0.896100000000000      1.249900000000000
H       2.298500000000000      1.495500000000000      2.542400000000000
H      -1.215400000000000     -0.543200000000000     -0.075400000000000
H       2.264700000000000     -2.642300000000000      2.062600000000000
H       0.318500000000000     -3.225000000000000      0.082200000000000
H       1.306100000000000      0.802800000000000     -0.278300000000000
H       0.258800000000000      1.315500000000000      1.016800000000000
H      -6.137000000000000      0.299600000000000      1.645600000000000
H      -5.463800000000000      1.831600000000000      1.070500000000000
H       1.678300000000000     -1.939600000000000     -3.379800000000000
H       2.644300000000000     -0.793400000000000     -2.440300000000000
H       0.914900000000000     -0.576200000000000     -2.515800000000000
H       1.493100000000000     -0.159000000000000      4.178800000000000
H       0.090200000000000     -0.244900000000000      3.090400000000000
H       0.893200000000000     -1.725700000000000      3.621100000000000
H       1.069600000000000      3.546400000000000      1.029000000000000
H      -7.848300000000000      1.766400000000000      0.978100000000000
H      -7.832900000000000      0.481400000000000     -0.026000000000000
H       2.449700000000000      2.770600000000000     -2.748700000000000
H       3.975800000000000      2.902400000000000     -1.848300000000000
H       2.921400000000000      1.520500000000000     -1.588500000000000
H       3.406300000000000      5.171900000000000     -0.813900000000000
H       1.941600000000000      5.193100000000000     -1.821300000000000
H       1.821100000000000      5.420800000000000     -0.072800000000000
