57

N      -7.945700000000000      0.120200000000000      0.198700000000000
N      -9.771900000000000     -0.645500000000000     -0.806700000000000
C       2.159000000000000     -0.165800000000000     -0.311800000000000
C       0.892400000000000      0.643100000000000     -0.014400000000000
C       3.452900000000000      0.585600000000000      0.011200000000000
C      -0.436200000000000     -0.076600000000000     -0.266200000000000
C       4.682700000000000     -0.266400000000000     -0.314200000000000
C      -1.663800000000000      0.771700000000000      0.071200000000000
C       6.007900000000000      0.427800000000000      0.014100000000000
C      -2.958200000000000     -0.008600000000000     -0.168500000000000
C       7.234600000000000     -0.452300000000000     -0.242200000000000
C      -4.186700000000000      0.824900000000000      0.199900000000000
C       8.523999999999999      0.262600000000000      0.171000000000000
C      -5.478100000000000      0.033200000000000     -0.007600000000000
C       9.782600000000000     -0.584400000000000     -0.037800000000000
C      -6.700800000000000      0.854400000000000      0.398900000000000
C      11.073600000000001      0.137300000000000      0.350500000000000
C      12.292700000000000     -0.740800000000000      0.111900000000000
C      -8.564600000000000     -0.687100000000000      1.111100000000000
C      -8.707100000000001      0.114300000000000     -0.936900000000000
C      -9.689399999999999     -1.147600000000000      0.467800000000000
H       2.128600000000000     -1.097500000000000      0.266400000000000
H       2.156900000000000     -0.450800000000000     -1.371100000000000
H       0.914000000000000      1.561400000000000     -0.614900000000000
H       0.921400000000000      0.961200000000000      1.035700000000000
H       3.490600000000000      1.519000000000000     -0.562900000000000
H       3.463900000000000      0.857300000000000      1.073400000000000
H      -0.457100000000000     -0.997400000000000      0.329800000000000
H      -0.482200000000000     -0.380700000000000     -1.319200000000000
H       4.625300000000000     -1.207700000000000      0.246800000000000
H       4.671600000000000     -0.531300000000000     -1.378600000000000
H      -1.612200000000000      1.086500000000000      1.120400000000000
H      -1.661000000000000      1.681700000000000     -0.540600000000000
H       5.997100000000000      0.730400000000000      1.068700000000000
H       6.089100000000000      1.347500000000000     -0.578300000000000
H      -3.018400000000000     -0.308200000000000     -1.221800000000000
H      -2.947300000000000     -0.928300000000000      0.429200000000000
H       7.282000000000000     -0.718000000000000     -1.304800000000000
H       7.139600000000000     -1.387700000000000      0.322300000000000
H      -4.115000000000000      1.139300000000000      1.248300000000000
H      -4.210800000000000      1.735900000000000     -0.410300000000000
H       8.619100000000000      1.193400000000000     -0.401900000000000
H       8.458600000000001      0.547200000000000      1.228600000000000
H      -5.444000000000000     -0.892800000000000      0.580200000000000
H      -5.563300000000000     -0.265700000000000     -1.059800000000000
H       9.693500000000000     -1.507900000000000      0.548000000000000
H       9.839700000000001     -0.883500000000000     -1.091900000000000
H      -6.770900000000000      1.776500000000000     -0.189500000000000
H      -6.655900000000000      1.133000000000000      1.458000000000000
H      11.173100000000000      1.059700000000000     -0.233200000000000
H      11.034700000000001      0.423900000000000      1.407700000000000
H      12.237100000000000     -1.658900000000000      0.705500000000000
H      12.376099999999999     -1.018100000000000     -0.943800000000000
H      13.205100000000000     -0.207100000000000      0.396100000000000
H      -8.167100000000000     -0.859500000000000      2.101600000000000
H      -8.438000000000001      0.676600000000000     -1.820600000000000
H     -10.443199999999999     -1.816000000000000      0.857500000000000
