57

N      -1.808100000000000      0.505200000000000     -0.644000000000000
N      -5.886100000000000     -0.483600000000000      0.470800000000000
C       2.900600000000000     -1.814000000000000      0.091400000000000
C       2.419400000000000     -0.352200000000000      0.098000000000000
C       0.470700000000000      1.308900000000000     -0.203100000000000
C       1.358200000000000      2.326200000000000      0.536500000000000
C       0.920900000000000     -0.120000000000000      0.157100000000000
C       3.278700000000000      0.690300000000000      0.053400000000000
C       2.823300000000000      2.130200000000000      0.111100000000000
C       4.421600000000000     -1.908900000000000      0.387500000000000
C       4.775600000000000      0.526300000000000     -0.058400000000000
C       5.227000000000000     -0.887700000000000     -0.401200000000000
C      -1.019800000000000      1.468800000000000      0.106100000000000
C       2.181100000000000     -2.653400000000000      1.168900000000000
C       2.610800000000000     -2.441000000000000     -1.289800000000000
C       0.945200000000000      3.780200000000000      0.297800000000000
C      -3.228200000000000      0.645200000000000     -0.346500000000000
C      -4.042200000000000     -0.348000000000000     -1.177900000000000
C      -5.548100000000000     -0.243600000000000     -0.926800000000000
C      -5.479600000000000     -1.830600000000000      0.875700000000000
C      -7.321200000000000     -0.298300000000000      0.693600000000000
H       0.615600000000000      1.453800000000000     -1.284500000000000
H       1.286600000000000      2.135500000000000      1.616800000000000
H       0.579700000000000     -0.364300000000000      1.171700000000000
H       0.429200000000000     -0.820800000000000     -0.526100000000000
H       2.985900000000000      2.575400000000000     -0.879600000000000
H       3.461100000000000      2.680900000000000      0.814800000000000
H       4.605500000000000     -1.744600000000000      1.458500000000000
H       4.793500000000000     -2.916900000000000      0.164400000000000
H       5.224900000000000      0.824900000000000      0.897400000000000
H       5.168600000000000      1.208500000000000     -0.822000000000000
H       5.118000000000000     -1.064900000000000     -1.477400000000000
H       6.294100000000000     -0.996500000000000     -0.175200000000000
H      -1.187200000000000      1.344000000000000      1.183300000000000
H      -1.348900000000000      2.477700000000000     -0.165600000000000
H       2.590700000000000     -3.669600000000000      1.213100000000000
H       2.294400000000000     -2.205400000000000      2.162900000000000
H       1.108700000000000     -2.749700000000000      0.966200000000000
H       3.029700000000000     -1.842400000000000     -2.106000000000000
H       3.037900000000000     -3.448000000000000     -1.362600000000000
H       1.535500000000000     -2.537000000000000     -1.476400000000000
H      -0.020600000000000      4.002300000000000      0.761900000000000
H       0.873500000000000      4.003100000000000     -0.772000000000000
H       1.676000000000000      4.467600000000000      0.737800000000000
H      -1.649600000000000      0.632000000000000     -1.643300000000000
H      -3.566500000000000      1.664100000000000     -0.571500000000000
H      -3.391900000000000      0.464400000000000      0.721600000000000
H      -3.679900000000000     -1.371300000000000     -1.024600000000000
H      -3.871200000000000     -0.137800000000000     -2.242800000000000
H      -5.871800000000000      0.764800000000000     -1.215400000000000
H      -6.071400000000000     -0.945900000000000     -1.589100000000000
H      -5.883200000000000     -2.605100000000000      0.213200000000000
H      -4.391500000000000     -1.934100000000000      0.924200000000000
H      -5.832300000000000     -2.044300000000000      1.892000000000000
H      -7.924700000000000     -1.003900000000000      0.111100000000000
H      -7.566400000000000     -0.426800000000000      1.753800000000000
H      -7.624300000000000      0.719800000000000      0.424600000000000
