57

N      -3.376600000000000     -0.394700000000000      0.187300000000000
N       0.299800000000000     -0.697700000000000      0.722200000000000
C      -4.368500000000000      0.588200000000000      0.663900000000000
C      -5.784000000000000     -0.010600000000000      0.555000000000000
C      -3.618800000000000     -0.847600000000000     -1.187000000000000
C      -6.100300000000000     -0.510700000000000     -0.851400000000000
C      -5.011500000000000     -1.461000000000000     -1.333200000000000
C      -4.301200000000000      1.966900000000000     -0.011200000000000
C      -1.997300000000000      0.054100000000000      0.356700000000000
C      -1.077000000000000     -1.143700000000000      0.571100000000000
C      -5.266700000000000      2.937400000000000      0.634200000000000
C       1.198400000000000     -1.837200000000000      0.891900000000000
C       2.621400000000000     -1.390400000000000      1.059700000000000
C       3.687100000000000     -1.710000000000000      0.298800000000000
C       5.093100000000000     -1.190000000000000      0.513500000000000
C       5.607800000000000     -0.306900000000000     -0.631100000000000
C       3.517900000000000     -2.624200000000000     -0.888000000000000
C       4.683900000000000      0.839000000000000     -0.939000000000000
C       4.700900000000000      2.082400000000000     -0.422700000000000
C       3.743100000000000      3.183800000000000     -0.776800000000000
C       5.748600000000000      2.472800000000000      0.585900000000000
H      -4.183700000000000      0.734800000000000      1.737500000000000
H      -5.846700000000000     -0.867000000000000      1.241600000000000
H      -6.561400000000000      0.680600000000000      0.892200000000000
H      -3.504000000000000     -0.022800000000000     -1.901300000000000
H      -2.897800000000000     -1.617500000000000     -1.481300000000000
H      -7.067800000000000     -1.025200000000000     -0.853900000000000
H      -6.189700000000000      0.335300000000000     -1.542300000000000
H      -5.191100000000000     -1.727100000000000     -2.381100000000000
H      -5.061500000000000     -2.393000000000000     -0.755600000000000
H      -4.506300000000000      1.910700000000000     -1.085400000000000
H      -3.292700000000000      2.383900000000000      0.092600000000000
H      -1.665000000000000      0.663900000000000     -0.493900000000000
H      -1.913500000000000      0.689300000000000      1.249200000000000
H      -1.140200000000000     -1.836600000000000     -0.274900000000000
H      -1.393600000000000     -1.687700000000000      1.470100000000000
H      -5.181500000000000      2.931800000000000      1.725600000000000
H      -5.049300000000000      3.955300000000000      0.292000000000000
H      -6.304900000000000      2.732400000000000      0.358800000000000
H       0.574400000000000     -0.173000000000000     -0.108600000000000
H       0.920300000000000     -2.393900000000000      1.795300000000000
H       1.080200000000000     -2.518700000000000      0.045300000000000
H       2.794600000000000     -0.724300000000000      1.904700000000000
H       5.772300000000000     -2.041200000000000      0.646800000000000
H       5.137400000000000     -0.620800000000000      1.451200000000000
H       5.718600000000000     -0.905800000000000     -1.544200000000000
H       6.619900000000000      0.042800000000000     -0.401300000000000
H       3.187400000000000     -2.059000000000000     -1.765000000000000
H       2.815400000000000     -3.440000000000000     -0.696100000000000
H       4.467900000000000     -3.109800000000000     -1.138800000000000
H       3.905100000000000      0.612500000000000     -1.666300000000000
H       4.283300000000000      4.042500000000000     -1.188100000000000
H       3.013600000000000      2.857100000000000     -1.525200000000000
H       3.189400000000000      3.508900000000000      0.109800000000000
H       6.338700000000000      1.640100000000000      0.973900000000000
H       5.271100000000000      2.941600000000000      1.453800000000000
H       6.439400000000000      3.199200000000000      0.144800000000000
