58

O       8.374599999999999     -0.922100000000000      0.314400000000000
O       7.282600000000000      0.100000000000000     -1.440800000000000
C      -7.862200000000000     -0.576100000000000     -0.490000000000000
C      -6.699900000000000      0.402700000000000     -0.565900000000000
C      -8.067700000000000     -1.128700000000000      0.928200000000000
C      -5.364400000000000     -0.292000000000000     -0.301600000000000
C      -4.194900000000000      0.689000000000000     -0.412000000000000
C      -2.856800000000000     -0.015800000000000     -0.179000000000000
C      -9.579100000000000     -1.271700000000000      1.109600000000000
C      -9.187500000000000      0.058500000000000     -0.780100000000000
C      -1.655100000000000      0.933100000000000     -0.207200000000000
C      -0.325200000000000      0.240400000000000      0.098500000000000
C       0.842400000000000      1.226800000000000      0.026000000000000
C     -10.123600000000000     -0.326500000000000      0.092500000000000
C       2.176800000000000      0.530500000000000      0.299300000000000
C       3.340700000000000      1.523600000000000      0.259300000000000
C       4.669700000000000      0.832200000000000      0.565300000000000
C       5.888400000000000      1.762000000000000      0.513600000000000
C       7.223200000000000      1.067500000000000      0.788300000000000
C       7.599700000000000      0.044400000000000     -0.260400000000000
C       8.840100000000000     -1.945500000000000     -0.571100000000000
C       9.678200000000000     -2.932500000000000      0.213200000000000
H      -7.708000000000000     -1.398000000000000     -1.200700000000000
H      -6.838500000000000      1.224200000000000      0.149000000000000
H      -6.674900000000000      0.860700000000000     -1.563400000000000
H      -7.678400000000000     -0.436400000000000      1.686800000000000
H      -7.554300000000000     -2.085600000000000      1.072500000000000
H      -5.226200000000000     -1.107400000000000     -1.022200000000000
H      -5.360900000000000     -0.740900000000000      0.698400000000000
H      -4.192400000000000      1.156000000000000     -1.404200000000000
H      -4.320000000000000      1.492400000000000      0.324100000000000
H      -2.718200000000000     -0.794700000000000     -0.938800000000000
H      -2.883200000000000     -0.523700000000000      0.793300000000000
H      -9.881900000000000     -0.997400000000000      2.124200000000000
H      -9.916600000000001     -2.292000000000000      0.900900000000000
H      -1.815900000000000      1.737100000000000      0.521800000000000
H      -1.600700000000000      1.408000000000000     -1.194700000000000
H      -9.376099999999999      0.709800000000000     -1.621800000000000
H      -0.367300000000000     -0.211400000000000      1.096800000000000
H      -0.165100000000000     -0.573500000000000     -0.619000000000000
H       0.688800000000000      2.029700000000000      0.757300000000000
H       0.870300000000000      1.693800000000000     -0.966000000000000
H     -11.158799999999999     -0.020800000000000      0.048600000000000
H       2.339600000000000     -0.258800000000000     -0.444600000000000
H       2.142100000000000      0.046200000000000      1.282800000000000
H       3.170900000000000      2.324500000000000      0.988800000000000
H       3.390700000000000      1.992500000000000     -0.730800000000000
H       4.616700000000000      0.374800000000000      1.561300000000000
H       4.809400000000000      0.010900000000000     -0.147800000000000
H       5.753600000000000      2.561700000000000      1.252200000000000
H       5.926300000000000      2.245700000000000     -0.470300000000000
H       7.169000000000000      0.575100000000000      1.766400000000000
H       8.027699999999999      1.810100000000000      0.826700000000000
H       9.445900000000000     -1.494000000000000     -1.364700000000000
H       7.981900000000000     -2.460800000000000     -1.016800000000000
H       9.090999999999999     -3.379200000000000      1.022300000000000
H      10.530799999999999     -2.428500000000000      0.680100000000000
H      10.051200000000000     -3.730600000000000     -0.434700000000000
