58

O      -1.235600000000000     -2.345100000000000      0.920600000000000
O      -5.025400000000000     -0.622300000000000      0.801300000000000
C       1.145100000000000      0.499200000000000     -0.114300000000000
C       2.413700000000000     -0.343400000000000      0.263400000000000
C      -0.146600000000000     -0.258900000000000      0.407300000000000
C       3.796000000000000      0.333300000000000     -0.077800000000000
C      -0.236900000000000     -1.775100000000000      0.050700000000000
C       1.233100000000000      1.885200000000000      0.611700000000000
C       2.306200000000000     -1.803200000000000     -0.218900000000000
C       1.082600000000000     -2.489600000000000      0.374000000000000
C       3.704100000000000      1.879000000000000      0.006600000000000
C       2.643600000000000      2.344000000000000      0.990900000000000
C       1.059300000000000      0.773000000000000     -1.634700000000000
C      -1.468200000000000      0.480300000000000      0.114600000000000
C       4.355500000000000     -0.049400000000000     -1.463800000000000
C       4.842000000000000     -0.141600000000000      0.965800000000000
C      -0.701600000000000     -2.095500000000000     -1.375500000000000
C      -2.651900000000000     -0.294900000000000      0.682900000000000
C      -4.034500000000000      0.329800000000000      0.378300000000000
C      -4.267400000000000      1.602800000000000      1.203600000000000
C      -4.232100000000000      0.490900000000000     -1.112900000000000
C      -4.580900000000000      1.601600000000000     -1.773900000000000
H       2.383500000000000     -0.407200000000000      1.363900000000000
H      -0.062600000000000     -0.243900000000000      1.507500000000000
H       0.651000000000000      1.874000000000000      1.542000000000000
H       0.764800000000000      2.658800000000000     -0.011200000000000
H       3.190800000000000     -2.369600000000000      0.092900000000000
H       2.272300000000000     -1.859300000000000     -1.311400000000000
H       1.042600000000000     -3.531500000000000      0.030800000000000
H       1.201900000000000     -2.556000000000000      1.464400000000000
H       3.488700000000000      2.315200000000000     -0.975300000000000
H       4.673700000000000      2.303300000000000      0.297900000000000
H       2.658000000000000      3.437900000000000      1.064500000000000
H       2.888000000000000      1.970300000000000      1.993100000000000
H       1.162000000000000     -0.130700000000000     -2.234200000000000
H       0.120300000000000      1.255700000000000     -1.917500000000000
H       1.837800000000000      1.458800000000000     -1.975100000000000
H      -1.600700000000000      0.612200000000000     -0.961400000000000
H      -1.444300000000000      1.482200000000000      0.554700000000000
H       4.592800000000000     -1.116800000000000     -1.526600000000000
H       5.284600000000000      0.495000000000000     -1.671200000000000
H       3.658600000000000      0.183100000000000     -2.272200000000000
H       5.825000000000000      0.303500000000000      0.772400000000000
H       4.969400000000000     -1.228800000000000      0.945300000000000
H       4.549300000000000      0.140400000000000      1.983100000000000
H      -0.926600000000000     -3.165400000000000     -1.470300000000000
H      -1.623600000000000     -1.579200000000000     -1.653200000000000
H       0.051100000000000     -1.865300000000000     -2.129700000000000
H      -2.550800000000000     -0.450300000000000      1.764400000000000
H      -2.772000000000000     -1.265700000000000      0.202600000000000
H      -1.249200000000000     -3.306900000000000      0.776600000000000
H      -4.147300000000000      1.393500000000000      2.273200000000000
H      -5.292100000000000      1.974400000000000      1.083400000000000
H      -3.574700000000000      2.406100000000000      0.934000000000000
H      -4.091200000000000     -0.409200000000000     -1.710300000000000
H      -5.904200000000000     -0.236700000000000      0.642000000000000
H      -4.698800000000000      1.577500000000000     -2.852200000000000
H      -4.753800000000000      2.547100000000000     -1.274600000000000
