58

O       1.174100000000000      2.437400000000000      0.886900000000000
O       5.031100000000000      0.664200000000000      0.789600000000000
C      -1.137500000000000     -0.436500000000000     -0.260300000000000
C      -2.393000000000000      0.299400000000000      0.346200000000000
C       0.153700000000000      0.314000000000000      0.283300000000000
C      -3.774400000000000     -0.426700000000000      0.176600000000000
C       0.166800000000000      1.857700000000000      0.034000000000000
C      -1.139000000000000     -1.902700000000000      0.265400000000000
C      -2.404300000000000      1.793800000000000     -0.034600000000000
C      -1.154900000000000      2.496000000000000      0.487800000000000
C      -3.639000000000000     -1.890100000000000      0.664900000000000
C      -2.461200000000000     -2.642700000000000      0.062900000000000
C      -1.138600000000000     -0.488800000000000     -1.807300000000000
C       1.488900000000000     -0.354600000000000     -0.103200000000000
C      -4.337400000000000     -0.387600000000000     -1.255700000000000
C      -4.841500000000000      0.242900000000000      1.082900000000000
C       0.515400000000000      2.301400000000000     -1.392700000000000
C       2.663700000000000      0.411700000000000      0.494800000000000
C       4.055800000000000     -0.139600000000000      0.104200000000000
C       4.323500000000000      0.029800000000000     -1.397600000000000
C       4.241500000000000     -1.545600000000000      0.631000000000000
C       4.606400000000000     -2.633200000000000     -0.059000000000000
H      -2.224400000000000      0.287800000000000      1.436700000000000
H       0.109500000000000      0.202500000000000      1.379900000000000
H      -0.908500000000000     -1.905600000000000      1.339100000000000
H      -0.348600000000000     -2.485000000000000     -0.223400000000000
H      -3.266500000000000      2.300100000000000      0.410300000000000
H      -2.495100000000000      1.936600000000000     -1.114800000000000
H      -1.181300000000000      3.555200000000000      0.199800000000000
H      -1.200200000000000      2.506100000000000      1.586000000000000
H      -4.562100000000000     -2.446700000000000      0.457900000000000
H      -3.519800000000000     -1.897400000000000      1.757200000000000
H      -2.641500000000000     -2.838700000000000     -0.998400000000000
H      -2.389600000000000     -3.628700000000000      0.538500000000000
H      -0.141600000000000     -0.647000000000000     -2.223300000000000
H      -1.730900000000000     -1.317600000000000     -2.199300000000000
H      -1.542000000000000      0.415100000000000     -2.264400000000000
H       1.601200000000000     -0.405400000000000     -1.187300000000000
H       1.509100000000000     -1.383800000000000      0.267700000000000
H      -4.388100000000000      0.635300000000000     -1.641900000000000
H      -5.358100000000000     -0.789000000000000     -1.280000000000000
H      -3.763200000000000     -0.987000000000000     -1.960900000000000
H      -4.482800000000000      0.345800000000000      2.113100000000000
H      -5.760800000000000     -0.354500000000000      1.114400000000000
H      -5.122500000000000      1.237000000000000      0.721100000000000
H       1.439700000000000      1.844100000000000     -1.756200000000000
H      -0.274800000000000      2.090200000000000     -2.113100000000000
H       0.694100000000000      3.383800000000000     -1.418100000000000
H       2.577100000000000      0.469300000000000      1.587600000000000
H       2.736500000000000      1.424900000000000      0.102000000000000
H       0.950100000000000      2.230500000000000      1.810500000000000
H       4.187300000000000      1.074300000000000     -1.701700000000000
H       3.673000000000000     -0.594700000000000     -2.017300000000000
H       5.365000000000000     -0.215900000000000     -1.638400000000000
H       4.066200000000000     -1.679200000000000      1.698000000000000
H       4.848100000000000      0.624100000000000      1.744000000000000
H       4.708200000000000     -3.588200000000000      0.446100000000000
H       4.809300000000000     -2.608200000000000     -1.122600000000000
