58

O       1.005100000000000      2.293400000000000      1.150200000000000
O       6.690100000000000      0.051400000000000     -1.399100000000000
C      -1.306000000000000     -0.474400000000000     -0.234400000000000
C      -2.581700000000000      0.317100000000000      0.246700000000000
C      -0.043400000000000      0.217700000000000      0.438700000000000
C      -3.970200000000000     -0.346500000000000     -0.063100000000000
C       0.063300000000000      1.759200000000000      0.198500000000000
C      -1.425300000000000     -1.938900000000000      0.282300000000000
C      -2.488300000000000      1.810400000000000     -0.126900000000000
C      -1.267300000000000      2.456200000000000      0.520600000000000
C      -3.949700000000000     -1.814300000000000      0.430000000000000
C      -2.752300000000000     -2.619100000000000     -0.054400000000000
C      -1.154600000000000     -0.526900000000000     -1.774000000000000
C       1.292600000000000     -0.510000000000000      0.184700000000000
C      -4.384800000000000     -0.282600000000000     -1.544300000000000
C      -5.091700000000000      0.370400000000000      0.734800000000000
C       0.572300000000000      2.186500000000000     -1.184300000000000
C       2.435300000000000      0.199200000000000      0.898600000000000
C       3.753400000000000     -0.500700000000000      0.657100000000000
C       4.137400000000000     -1.523300000000000      1.694400000000000
C       4.570700000000000     -0.246200000000000     -0.383100000000000
C       5.895200000000000     -0.878500000000000     -0.673100000000000
H      -2.523700000000000      0.298200000000000      1.348600000000000
H      -0.199700000000000      0.113900000000000      1.525900000000000
H      -1.303600000000000     -1.951600000000000      1.373700000000000
H      -0.616700000000000     -2.556100000000000     -0.127400000000000
H      -3.367100000000000      2.354800000000000      0.232100000000000
H      -2.464100000000000      1.957100000000000     -1.210200000000000
H      -1.220500000000000      3.515700000000000      0.236500000000000
H      -1.413500000000000      2.465900000000000      1.610300000000000
H      -4.871400000000000     -2.329100000000000      0.129600000000000
H      -3.940700000000000     -1.826700000000000      1.528800000000000
H      -2.834300000000000     -2.807000000000000     -1.129300000000000
H      -2.772600000000000     -3.607100000000000      0.421800000000000
H      -1.733900000000000     -1.334400000000000     -2.225800000000000
H      -1.478900000000000      0.390300000000000     -2.266100000000000
H      -0.127100000000000     -0.719600000000000     -2.088800000000000
H       1.521500000000000     -0.571000000000000     -0.883000000000000
H       1.232800000000000     -1.540700000000000      0.551300000000000
H      -5.413900000000000     -0.640500000000000     -1.672800000000000
H      -4.353500000000000      0.741900000000000     -1.928500000000000
H      -3.767900000000000     -0.904900000000000     -2.191200000000000
H      -6.035300000000000     -0.185100000000000      0.671600000000000
H      -4.833700000000000      0.457400000000000      1.796200000000000
H      -5.290400000000000      1.376100000000000      0.351100000000000
H      -0.143800000000000      1.992000000000000     -1.982700000000000
H       0.782600000000000      3.263300000000000     -1.200000000000000
H       1.515900000000000      1.700700000000000     -1.447800000000000
H       2.254900000000000      0.294900000000000      1.975500000000000
H       2.626500000000000      1.189600000000000      0.483000000000000
H       1.029600000000000      3.260000000000000      1.045800000000000
H       4.952900000000000     -2.183700000000000      1.390100000000000
H       4.428300000000000     -1.023100000000000      2.623800000000000
H       3.283400000000000     -2.174300000000000      1.912100000000000
H       4.232000000000000      0.485800000000000     -1.115700000000000
H       5.757900000000000     -1.767300000000000     -1.296000000000000
H       6.445400000000000     -1.139400000000000      0.234200000000000
H       7.534600000000000     -0.388400000000000     -1.597100000000000
