58

O       8.347400000000000      0.900700000000000     -0.375500000000000
O       7.153100000000000      0.437900000000000      1.542200000000000
C      -7.899500000000000      0.249700000000000     -0.485300000000000
C      -6.730900000000000     -0.615200000000000     -0.036800000000000
C      -7.905600000000000      1.623300000000000      0.201500000000000
C      -5.390800000000000      0.009300000000000     -0.424100000000000
C      -4.217400000000000     -0.846700000000000      0.058300000000000
C      -2.876900000000000     -0.202700000000000     -0.302400000000000
C      -9.375999999999999      1.969400000000000      0.437700000000000
C      -9.232100000000001     -0.309300000000000     -0.091800000000000
C      -1.666200000000000     -1.052600000000000      0.093900000000000
C      -0.328900000000000     -0.443000000000000     -0.332300000000000
C       0.845500000000000     -1.316000000000000      0.115700000000000
C     -10.037200000000000      0.633000000000000      0.407900000000000
C       2.185100000000000     -0.692700000000000     -0.280700000000000
C       3.357900000000000     -1.582400000000000      0.138400000000000
C       4.694400000000000     -0.974100000000000     -0.288000000000000
C       5.920300000000000     -1.797900000000000      0.125700000000000
C       7.260400000000000     -1.176900000000000     -0.271300000000000
C       7.549300000000000      0.134500000000000      0.425200000000000
C       8.736300000000000      2.164600000000000      0.171600000000000
C       9.611599999999999      2.887200000000000     -0.830000000000000
H      -7.878800000000000      0.370000000000000     -1.575900000000000
H      -6.813200000000000     -1.609200000000000     -0.495200000000000
H      -6.765000000000000     -0.770700000000000      1.049600000000000
H      -7.407000000000000      2.387100000000000     -0.405200000000000
H      -7.386800000000000      1.588900000000000      1.168900000000000
H      -5.339700000000000      0.123600000000000     -1.513700000000000
H      -5.295900000000000      1.011200000000000      0.009600000000000
H      -4.280200000000000     -1.843300000000000     -0.395100000000000
H      -4.275700000000000     -0.980800000000000      1.145200000000000
H      -2.801800000000000      0.778500000000000      0.182500000000000
H      -2.844500000000000     -0.023800000000000     -1.384500000000000
H      -9.773600000000000      2.609000000000000     -0.356900000000000
H      -9.513199999999999      2.470900000000000      1.400100000000000
H      -1.672400000000000     -1.194200000000000      1.181800000000000
H      -1.765000000000000     -2.048800000000000     -0.355100000000000
H      -9.524500000000000     -1.339300000000000     -0.239500000000000
H      -0.309200000000000     -0.326400000000000     -1.422500000000000
H      -0.230100000000000      0.558900000000000      0.102600000000000
H       0.812300000000000     -1.449500000000000      1.203900000000000
H       0.754000000000000     -2.311600000000000     -0.335400000000000
H     -11.056600000000000      0.459100000000000      0.720200000000000
H       2.285100000000000      0.294100000000000      0.187200000000000
H       2.210700000000000     -0.540300000000000     -1.366600000000000
H       3.250000000000000     -2.576100000000000     -0.312700000000000
H       3.346900000000000     -1.717600000000000      1.226600000000000
H       4.703000000000000     -0.851800000000000     -1.378300000000000
H       4.772900000000000      0.032800000000000      0.139300000000000
H       5.897800000000000     -1.949700000000000      1.212100000000000
H       5.848100000000000     -2.792100000000000     -0.332000000000000
H       8.076400000000000     -1.865700000000000     -0.026600000000000
H       7.266100000000000     -1.015800000000000     -1.355800000000000
H       7.842200000000000      2.762500000000000      0.380900000000000
H       9.292899999999999      2.004400000000000      1.101800000000000
H      10.501500000000000      2.293200000000000     -1.063300000000000
H       9.074700000000000      3.038800000000000     -1.772300000000000
H       9.927800000000000      3.859900000000000     -0.443100000000000
