58

O      -4.696300000000000      2.291200000000000      0.020900000000000
O       7.437100000000000      0.667200000000000      0.091700000000000
C      -1.320500000000000     -0.301600000000000      0.899100000000000
C      -1.903700000000000     -0.265300000000000     -0.566200000000000
C      -3.342200000000000      0.363200000000000     -0.726300000000000
C       0.199600000000000     -0.739000000000000      0.855200000000000
C      -1.466800000000000      1.101600000000000      1.540600000000000
C      -3.385800000000000      1.725900000000000      0.029400000000000
C      -1.717600000000000     -1.628300000000000     -1.276400000000000
C      -2.885900000000000      1.656300000000000      1.470800000000000
C      -2.039600000000000     -1.327000000000000      1.822000000000000
C      -0.255500000000000     -2.083500000000000     -1.282200000000000
C       0.348100000000000     -2.048200000000000      0.095600000000000
C       1.176900000000000      0.295600000000000      0.274200000000000
C      -4.491800000000000     -0.567300000000000     -0.285200000000000
C      -3.603900000000000      0.667100000000000     -2.229100000000000
C       2.619700000000000     -0.173000000000000      0.433500000000000
C       0.955000000000000     -3.118900000000000      0.630900000000000
C       3.652200000000000      0.838200000000000     -0.111600000000000
C       5.070200000000000      0.319500000000000      0.202100000000000
C       3.463300000000000      1.087900000000000     -1.610800000000000
C       6.187800000000000      1.238400000000000     -0.278000000000000
H      -1.252100000000000      0.432000000000000     -1.115300000000000
H       0.512300000000000     -0.896100000000000      1.898600000000000
H      -0.833000000000000      1.829900000000000      1.024900000000000
H      -1.132900000000000      1.079400000000000      2.585200000000000
H      -2.744900000000000      2.436800000000000     -0.510100000000000
H      -2.045600000000000     -1.567500000000000     -2.319000000000000
H      -2.334100000000000     -2.401000000000000     -0.805100000000000
H      -3.578200000000000      1.078300000000000      2.091800000000000
H      -2.897500000000000      2.664300000000000      1.905500000000000
H      -1.504600000000000     -1.425600000000000      2.774900000000000
H      -3.052500000000000     -1.032000000000000      2.090100000000000
H      -2.095400000000000     -2.327200000000000      1.384500000000000
H       0.327000000000000     -1.435800000000000     -1.948300000000000
H      -0.201900000000000     -3.091000000000000     -1.712600000000000
H       0.941200000000000      0.494600000000000     -0.773700000000000
H       1.095100000000000      1.246800000000000      0.807900000000000
H      -5.463300000000000     -0.159400000000000     -0.591000000000000
H      -4.549200000000000     -0.692900000000000      0.794900000000000
H      -4.414700000000000     -1.558400000000000     -0.741900000000000
H      -4.535800000000000      1.227400000000000     -2.367700000000000
H      -3.696200000000000     -0.248700000000000     -2.821500000000000
H      -2.794900000000000      1.267200000000000     -2.660300000000000
H       2.781500000000000     -1.122200000000000     -0.089200000000000
H       2.824400000000000     -0.353900000000000      1.496700000000000
H      -4.646400000000000      3.159500000000000      0.455700000000000
H       1.377100000000000     -3.087300000000000      1.629700000000000
H       1.044400000000000     -4.050200000000000      0.081800000000000
H       3.513700000000000      1.792900000000000      0.412300000000000
H       5.177700000000000      0.170700000000000      1.284700000000000
H       5.214700000000000     -0.673900000000000     -0.243300000000000
H       3.593500000000000      0.164700000000000     -2.185300000000000
H       2.472100000000000      1.491600000000000     -1.834400000000000
H       4.173500000000000      1.828800000000000     -1.988900000000000
H       6.104800000000000      2.228100000000000      0.181600000000000
H       6.189600000000000      1.343600000000000     -1.365600000000000
H       8.130800000000001      1.274300000000000     -0.217600000000000
