58

O      -0.025000000000000      1.421700000000000      1.004400000000000
O       0.292600000000000      2.905800000000000     -0.736200000000000
C       2.343200000000000     -0.224100000000000      1.678600000000000
C       2.351000000000000      1.274600000000000      1.324300000000000
C       3.654900000000000     -0.919800000000000      1.246100000000000
C      -2.762800000000000      1.427100000000000     -0.026200000000000
C      -3.961600000000000      0.715000000000000     -0.689800000000000
C      -1.473400000000000      1.260500000000000     -0.844600000000000
C       1.071300000000000      2.007600000000000      1.712700000000000
C       2.139100000000000     -0.443500000000000      3.183000000000000
C       4.039900000000000     -0.754000000000000     -0.231200000000000
C      -3.762700000000000     -0.780600000000000     -0.976200000000000
C      -3.094600000000000      2.915800000000000      0.147300000000000
C      -0.302500000000000      1.973700000000000     -0.211600000000000
C       3.029400000000000     -1.357500000000000     -1.166300000000000
C      -3.549100000000000     -1.588600000000000      0.273400000000000
C       2.384700000000000     -0.770900000000000     -2.192700000000000
C      -2.534700000000000     -2.424900000000000      0.565200000000000
C       2.647500000000000      0.674000000000000     -2.527300000000000
C       1.381900000000000     -1.437400000000000     -3.090900000000000
C      -1.365600000000000     -2.726600000000000     -0.328400000000000
C      -2.503400000000000     -3.147800000000000      1.886200000000000
H       1.510600000000000     -0.710600000000000      1.155400000000000
H       2.491000000000000      1.398000000000000      0.248000000000000
H       3.200600000000000      1.763300000000000      1.816700000000000
H       4.483200000000000     -0.533900000000000      1.855100000000000
H       3.582000000000000     -1.991300000000000      1.476800000000000
H      -2.614300000000000      1.004100000000000      0.975300000000000
H      -4.194000000000000      1.212100000000000     -1.641000000000000
H      -4.848600000000000      0.842600000000000     -0.054800000000000
H      -1.184200000000000      0.211200000000000     -0.953300000000000
H      -1.607400000000000      1.659500000000000     -1.857300000000000
H       0.862200000000000      1.930600000000000      2.783200000000000
H       1.159300000000000      3.079200000000000      1.496900000000000
H       2.874800000000000      0.115800000000000      3.770800000000000
H       1.138100000000000     -0.137700000000000      3.501200000000000
H       2.240600000000000     -1.504400000000000      3.437200000000000
H       4.279300000000000      0.290200000000000     -0.429900000000000
H       4.982400000000000     -1.294800000000000     -0.389600000000000
H      -2.969500000000000     -0.917400000000000     -1.714000000000000
H      -4.676200000000000     -1.155900000000000     -1.455000000000000
H      -3.195200000000000      3.416500000000000     -0.821800000000000
H      -4.038200000000000      3.039900000000000      0.689900000000000
H      -2.322200000000000      3.436200000000000      0.722200000000000
H       2.809900000000000     -2.408100000000000     -0.978400000000000
H      -4.339000000000000     -1.472600000000000      1.015300000000000
H       1.738300000000000      1.261200000000000     -2.367700000000000
H       3.453900000000000      1.155900000000000     -1.977400000000000
H       2.913400000000000      0.758100000000000     -3.587600000000000
H       1.215800000000000     -2.480600000000000     -2.802600000000000
H       1.729900000000000     -1.427400000000000     -4.128600000000000
H       0.418900000000000     -0.919200000000000     -3.037800000000000
H      -1.277400000000000     -3.807900000000000     -0.479600000000000
H      -1.440700000000000     -2.273600000000000     -1.318300000000000
H      -0.438800000000000     -2.367600000000000      0.131500000000000
H      -1.596000000000000     -2.884300000000000      2.439700000000000
H      -3.361500000000000     -2.899600000000000      2.519800000000000
H      -2.511500000000000     -4.230900000000000      1.726200000000000
