59

O      -4.799100000000000     -0.443700000000000     -1.366000000000000
N      -4.205100000000000      1.058000000000000      0.308900000000000
C      -1.602500000000000      2.353700000000000      0.188100000000000
C      -2.511600000000000      3.484000000000000     -0.294600000000000
C      -2.063100000000000      1.642700000000000      1.462500000000000
C      -3.672700000000000      2.994600000000000     -1.164700000000000
C      -3.560500000000000      1.371000000000000      1.586800000000000
C      -4.745900000000000      2.207400000000000     -0.417900000000000
C       2.160300000000000     -1.178700000000000      0.188700000000000
C       3.618100000000000     -1.308400000000000     -0.259200000000000
C       1.351000000000000     -2.419800000000000     -0.194200000000000
C       4.438100000000000     -0.083000000000000      0.151500000000000
C      -0.110900000000000     -2.356300000000000      0.258900000000000
C       5.902200000000000     -0.230800000000000     -0.268900000000000
C      -0.913300000000000     -3.610900000000000     -0.103200000000000
C      -4.251200000000000     -0.200800000000000     -0.289200000000000
C       6.765600000000000      0.979600000000000      0.097500000000000
C      -2.389800000000000     -3.510900000000000      0.296200000000000
C       8.233700000000001      0.821800000000000     -0.300400000000000
C      -3.593200000000000     -1.321600000000000      0.412300000000000
C      -3.082500000000000     -2.324500000000000     -0.311500000000000
C       9.032299999999999      2.076600000000000      0.018400000000000
H      -1.469500000000000      1.616600000000000     -0.613800000000000
H      -0.603500000000000      2.764500000000000      0.382500000000000
H      -2.880600000000000      4.077900000000000      0.549500000000000
H      -1.906100000000000      4.160500000000000     -0.911000000000000
H      -1.518900000000000      0.691700000000000      1.526700000000000
H      -1.746700000000000      2.223500000000000      2.338000000000000
H      -4.149500000000000      3.864300000000000     -1.633200000000000
H      -3.275000000000000      2.381100000000000     -1.983100000000000
H      -3.732500000000000      0.565500000000000      2.306200000000000
H      -4.057300000000000      2.250500000000000      2.014600000000000
H      -5.274900000000000      2.854000000000000      0.292000000000000
H      -5.494200000000000      1.863900000000000     -1.141200000000000
H       1.709400000000000     -0.290200000000000     -0.269500000000000
H       2.119800000000000     -1.038300000000000      1.275600000000000
H       3.659100000000000     -1.431400000000000     -1.348300000000000
H       4.059000000000000     -2.209200000000000      0.185100000000000
H       1.821200000000000     -3.307600000000000      0.246700000000000
H       1.383900000000000     -2.551700000000000     -1.282900000000000
H       4.382700000000000      0.052700000000000      1.238300000000000
H       4.012400000000000      0.816300000000000     -0.309600000000000
H      -0.147700000000000     -2.207500000000000      1.345200000000000
H      -0.564000000000000     -1.469300000000000     -0.198600000000000
H       5.953400000000000     -0.390100000000000     -1.353200000000000
H       6.324400000000000     -1.126900000000000      0.202800000000000
H      -0.469200000000000     -4.485000000000000      0.387900000000000
H      -0.842400000000000     -3.785200000000000     -1.184300000000000
H       6.701800000000000      1.153200000000000      1.178900000000000
H       6.351300000000000      1.870900000000000     -0.390400000000000
H      -2.909800000000000     -4.420800000000000     -0.026200000000000
H      -2.462400000000000     -3.482200000000000      1.390600000000000
H       8.671400000000000     -0.032900000000000      0.228000000000000
H       8.306800000000001      0.612700000000000     -1.373800000000000
H      -3.524300000000000     -1.331400000000000      1.491400000000000
H      -3.144000000000000     -2.316500000000000     -1.397000000000000
H       9.001600000000000      2.299300000000000      1.089700000000000
H      10.079300000000000      1.942700000000000     -0.271100000000000
H       8.637900000000000      2.941600000000000     -0.524400000000000
