59

O      -1.690800000000000      3.189500000000000      1.132800000000000
N      -0.394600000000000      2.846100000000000     -0.765800000000000
C      -4.742100000000000     -0.953600000000000      0.615800000000000
C       3.551000000000000      1.292700000000000      0.409300000000000
C      -3.423200000000000     -1.685400000000000      0.943900000000000
C       2.446300000000000      1.983700000000000     -0.397000000000000
C       4.302200000000000      0.168100000000000     -0.310000000000000
C      -4.500600000000000      0.239100000000000     -0.337800000000000
C       1.791400000000000      3.153100000000000      0.345300000000000
C       5.433800000000000     -0.438900000000000      0.521700000000000
C      -2.778400000000000     -2.348400000000000     -0.277200000000000
C      -5.810800000000000     -1.904700000000000      0.066800000000000
C       0.655600000000000      3.788500000000000     -0.451500000000000
C       6.087100000000000     -1.614100000000000     -0.206600000000000
C      -3.522100000000000      1.265900000000000      0.164200000000000
C      -1.486100000000000     -3.022600000000000      0.091400000000000
C       7.234100000000000     -2.201100000000000      0.600400000000000
C      -2.409300000000000      1.607800000000000     -0.499900000000000
C      -1.483100000000000      2.629000000000000      0.061600000000000
C      -0.257100000000000     -2.758600000000000     -0.391200000000000
C       0.931700000000000     -3.561100000000000      0.065000000000000
C       0.065000000000000     -1.675000000000000     -1.381100000000000
H      -5.125500000000000     -0.551800000000000      1.564100000000000
H       4.280200000000000      2.052100000000000      0.719500000000000
H       3.113600000000000      0.890500000000000      1.332000000000000
H      -3.632100000000000     -2.453800000000000      1.700700000000000
H      -2.713400000000000     -0.992700000000000      1.412700000000000
H       2.867200000000000      2.349700000000000     -1.341500000000000
H       1.692700000000000      1.232300000000000     -0.657000000000000
H       3.584600000000000     -0.616900000000000     -0.579300000000000
H       4.713500000000000      0.556100000000000     -1.250000000000000
H      -4.212900000000000     -0.119500000000000     -1.333300000000000
H      -5.458500000000000      0.756300000000000     -0.484200000000000
H       2.546600000000000      3.916800000000000      0.565000000000000
H       1.405400000000000      2.795400000000000      1.307800000000000
H       5.038000000000000     -0.780400000000000      1.485900000000000
H       6.184400000000000      0.331700000000000      0.734700000000000
H      -3.442800000000000     -3.126400000000000     -0.671000000000000
H      -2.642400000000000     -1.629900000000000     -1.085200000000000
H      -5.942100000000000     -2.768400000000000      0.726700000000000
H      -6.775000000000000     -1.389900000000000     -0.005700000000000
H      -5.558000000000000     -2.268600000000000     -0.933900000000000
H       0.229000000000000      4.622900000000000      0.115800000000000
H       1.030800000000000      4.183400000000000     -1.401600000000000
H       6.466100000000000     -1.284200000000000     -1.180900000000000
H       5.342200000000000     -2.395800000000000     -0.395800000000000
H      -3.766000000000000      1.734800000000000      1.113900000000000
H      -1.590800000000000     -3.833500000000000      0.811300000000000
H      -0.310300000000000      2.328000000000000     -1.635800000000000
H       7.686100000000000     -3.040000000000000      0.062000000000000
H       6.883400000000000     -2.569000000000000      1.570000000000000
H       8.012600000000001     -1.452300000000000      0.777800000000000
H      -2.163500000000000      1.147100000000000     -1.450700000000000
H       1.408200000000000     -4.050900000000000     -0.790700000000000
H       0.658700000000000     -4.340700000000000      0.784000000000000
H       1.668000000000000     -2.908700000000000      0.546200000000000
H       0.866100000000000     -1.040200000000000     -0.988700000000000
H      -0.772300000000000     -1.016300000000000     -1.613000000000000
H       0.411100000000000     -2.118100000000000     -2.320700000000000
