59

O       2.878300000000000     -2.010100000000000     -1.207700000000000
N       3.366800000000000      0.073000000000000     -0.298300000000000
C      -4.727100000000000      2.191500000000000     -0.629900000000000
C      -4.623700000000000      0.772300000000000     -1.196900000000000
C      -3.596900000000000      2.615700000000000      0.314800000000000
C      -4.540700000000000     -0.311500000000000     -0.119300000000000
C      -2.195200000000000      2.662800000000000     -0.302400000000000
C      -4.423700000000000     -1.702300000000000     -0.747700000000000
C      -1.079400000000000      3.156300000000000      0.623400000000000
C      -4.359800000000000     -2.839200000000000      0.280200000000000
C       0.307800000000000      3.106300000000000     -0.017500000000000
C      -3.199200000000000     -2.763400000000000      1.280000000000000
C       1.379600000000000      3.599900000000000      0.942800000000000
C      -1.848700000000000     -2.835200000000000      0.625800000000000
C       5.780800000000000     -0.344100000000000      0.055400000000000
C       4.690500000000000      0.224000000000000     -0.860100000000000
C      -0.932200000000000     -1.859700000000000      0.717000000000000
C       5.762700000000000      0.378200000000000      1.403000000000000
C       7.168200000000000     -0.228600000000000     -0.580100000000000
C       0.358600000000000     -1.916600000000000      0.068600000000000
C       2.572900000000000     -1.038600000000000     -0.523700000000000
C       1.260600000000000     -0.930800000000000      0.172500000000000
H      -4.777000000000000      2.899100000000000     -1.466600000000000
H      -5.678100000000000      2.283900000000000     -0.090300000000000
H      -3.748200000000000      0.706300000000000     -1.853700000000000
H      -5.500400000000000      0.587400000000000     -1.830000000000000
H      -3.584600000000000      1.973700000000000      1.202600000000000
H      -3.836500000000000      3.621700000000000      0.683800000000000
H      -5.428200000000000     -0.265900000000000      0.522600000000000
H      -3.667400000000000     -0.128900000000000      0.512300000000000
H      -2.222500000000000      3.303100000000000     -1.193000000000000
H      -1.930000000000000      1.657300000000000     -0.651000000000000
H      -5.289900000000000     -1.877000000000000     -1.398000000000000
H      -3.539000000000000     -1.741100000000000     -1.394700000000000
H      -1.302700000000000      4.184000000000000      0.934900000000000
H      -1.077300000000000      2.543100000000000      1.533200000000000
H      -4.309100000000000     -3.792800000000000     -0.260800000000000
H      -5.300500000000000     -2.856200000000000      0.844900000000000
H       0.319400000000000      3.728300000000000     -0.920000000000000
H       0.540000000000000      2.082900000000000     -0.329400000000000
H      -3.281500000000000     -3.614700000000000      1.967300000000000
H      -3.293300000000000     -1.867000000000000      1.903200000000000
H       2.363200000000000      3.560100000000000      0.464400000000000
H       1.190000000000000      4.634600000000000      1.245600000000000
H       1.415200000000000      2.977900000000000      1.842900000000000
H      -1.632300000000000     -3.733700000000000      0.052300000000000
H       5.576700000000000     -1.407100000000000      0.237300000000000
H       4.717900000000000     -0.280000000000000     -1.832900000000000
H       4.846400000000000      1.294500000000000     -1.034400000000000
H       4.815700000000000      0.224100000000000      1.930200000000000
H       6.559400000000000      0.001000000000000      2.053500000000000
H       5.912800000000000      1.456400000000000      1.279900000000000
H       7.431700000000000      0.817400000000000     -0.770200000000000
H       7.201200000000000     -0.765200000000000     -1.534100000000000
H       7.933900000000000     -0.659200000000000      0.073700000000000
H      -1.159500000000000     -0.966300000000000      1.293600000000000
H       3.021100000000000      0.829600000000000      0.285100000000000
H       0.572000000000000     -2.803200000000000     -0.522900000000000
H       1.060400000000000     -0.043700000000000      0.765000000000000
