59

O       2.324800000000000     -1.500600000000000      0.008100000000000
N       2.014200000000000     -3.583400000000000     -0.891500000000000
C      -2.354400000000000     -1.658700000000000      0.879800000000000
C      -3.430800000000000     -1.949100000000000     -0.168700000000000
C      -1.088900000000000     -2.475500000000000      0.607900000000000
C       0.669100000000000      2.515900000000000      0.638600000000000
C      -0.602200000000000      2.879900000000000     -0.132900000000000
C      -4.738500000000000     -1.181200000000000      0.058200000000000
C       0.015400000000000     -2.246300000000000      1.642000000000000
C       1.921600000000000      2.781700000000000     -0.199200000000000
C      -1.854100000000000      2.651100000000000      0.719800000000000
C      -4.621500000000000      0.347300000000000      0.079100000000000
C       3.225400000000000      2.454500000000000      0.535300000000000
C      -3.154300000000000      2.972000000000000     -0.025000000000000
C       1.248100000000000     -3.113200000000000      1.407100000000000
C       4.511600000000000      2.684400000000000     -0.262100000000000
C      -4.024700000000000      0.916400000000000     -1.175600000000000
C      -3.371200000000000      2.087100000000000     -1.217400000000000
C       1.874200000000000     -2.770800000000000      0.105700000000000
C       5.776500000000000      2.404600000000000      0.533700000000000
C       3.046700000000000     -1.478900000000000     -1.212800000000000
C       2.613000000000000     -2.737200000000000     -1.930100000000000
H      -2.739900000000000     -1.893500000000000      1.878800000000000
H      -2.092000000000000     -0.597900000000000      0.871200000000000
H      -3.659800000000000     -3.022200000000000     -0.160100000000000
H      -3.039300000000000     -1.727300000000000     -1.168600000000000
H      -0.718100000000000     -2.223000000000000     -0.392700000000000
H      -1.346200000000000     -3.542000000000000      0.591000000000000
H       0.718700000000000      3.101300000000000      1.564500000000000
H       0.637400000000000      1.457800000000000      0.925300000000000
H      -0.645800000000000      2.273300000000000     -1.044700000000000
H      -0.559700000000000      3.930800000000000     -0.443600000000000
H      -5.181600000000000     -1.507500000000000      1.007600000000000
H      -5.448000000000000     -1.474700000000000     -0.726500000000000
H      -0.378800000000000     -2.470300000000000      2.640900000000000
H       0.291600000000000     -1.184700000000000      1.646300000000000
H       1.940200000000000      3.835600000000000     -0.502700000000000
H       1.874100000000000      2.187600000000000     -1.120200000000000
H      -1.869500000000000      1.619300000000000      1.083800000000000
H      -1.799900000000000      3.292200000000000      1.608700000000000
H      -5.633600000000000      0.756200000000000      0.190200000000000
H      -4.061600000000000      0.642500000000000      0.971600000000000
H       3.268500000000000      3.056200000000000      1.452300000000000
H       3.195600000000000      1.405400000000000      0.856300000000000
H      -3.135700000000000      4.014200000000000     -0.367300000000000
H      -3.998700000000000      2.910400000000000      0.671200000000000
H       1.984800000000000     -2.949100000000000      2.200800000000000
H       0.980600000000000     -4.175400000000000      1.416100000000000
H       4.537500000000000      3.722600000000000     -0.613700000000000
H       4.501600000000000      2.046800000000000     -1.154000000000000
H      -4.160700000000000      0.367500000000000     -2.103700000000000
H      -2.976300000000000      2.429100000000000     -2.170600000000000
H       5.836700000000000      3.054100000000000      1.412700000000000
H       5.801200000000000      1.364200000000000      0.872900000000000
H       6.662200000000000      2.583300000000000     -0.084000000000000
H       4.118800000000000     -1.481100000000000     -0.989300000000000
H       2.805700000000000     -0.575200000000000     -1.780500000000000
H       1.861400000000000     -2.516400000000000     -2.696100000000000
H       3.458200000000000     -3.234600000000000     -2.415500000000000
