59

O       3.774100000000000      0.762200000000000     -1.323300000000000
N       4.512400000000000      2.237900000000000      0.264500000000000
C      -1.166800000000000      2.127400000000000      1.023900000000000
C      -2.323300000000000      1.704000000000000      1.932400000000000
C       0.072500000000000      1.264900000000000      1.274900000000000
C      -1.128400000000000     -2.664500000000000     -0.915700000000000
C      -2.387700000000000     -1.823300000000000     -0.691700000000000
C      -3.592400000000000      2.545400000000000      1.751100000000000
C       1.272500000000000      1.660600000000000      0.412000000000000
C      -0.420800000000000     -2.966900000000000      0.406900000000000
C      -3.117500000000000     -1.553900000000000     -2.011400000000000
C      -4.192400000000000      2.555200000000000      0.340300000000000
C       0.836400000000000     -3.826500000000000      0.241600000000000
C      -4.368700000000000     -0.686000000000000     -1.838700000000000
C       2.525100000000000      0.844600000000000      0.714100000000000
C       1.595800000000000     -4.145700000000000      1.531600000000000
C      -4.532500000000000      1.185500000000000     -0.172000000000000
C      -4.053300000000000      0.687000000000000     -1.321500000000000
C       3.663700000000000      1.333100000000000     -0.103400000000000
C       2.797700000000000     -5.052300000000000      1.319100000000000
C       4.780000000000000      1.521200000000000     -1.974500000000000
C       5.453400000000000      2.290100000000000     -0.860100000000000
H      -0.925700000000000      3.181700000000000      1.203900000000000
H      -1.452000000000000      2.034100000000000     -0.029200000000000
H      -2.005800000000000      1.787600000000000      2.979400000000000
H      -2.555400000000000      0.645300000000000      1.766800000000000
H      -0.173300000000000      0.215500000000000      1.086300000000000
H       0.353900000000000      1.339700000000000      2.332700000000000
H      -1.397200000000000     -3.606300000000000     -1.409100000000000
H      -0.442200000000000     -2.131800000000000     -1.585000000000000
H      -2.099100000000000     -0.879200000000000     -0.217800000000000
H      -3.063000000000000     -2.341400000000000     -0.000300000000000
H      -3.376200000000000      3.581100000000000      2.042000000000000
H      -4.348700000000000      2.180400000000000      2.458000000000000
H       1.487900000000000      2.726300000000000      0.563300000000000
H       1.009300000000000      1.549800000000000     -0.647700000000000
H      -1.115900000000000     -3.482900000000000      1.080700000000000
H      -0.143900000000000     -2.029000000000000      0.898900000000000
H      -2.431400000000000     -1.069900000000000     -2.718100000000000
H      -3.413600000000000     -2.508800000000000     -2.463000000000000
H      -5.115800000000000      3.147100000000000      0.362000000000000
H      -3.515000000000000      3.076200000000000     -0.346400000000000
H       0.551900000000000     -4.770100000000000     -0.241300000000000
H       1.520900000000000     -3.319600000000000     -0.450600000000000
H      -5.079100000000000     -1.199400000000000     -1.179400000000000
H      -4.863300000000000     -0.580700000000000     -2.811700000000000
H       2.793100000000000      0.930200000000000      1.773200000000000
H       2.356100000000000     -0.217700000000000      0.504300000000000
H       0.913000000000000     -4.625100000000000      2.243000000000000
H       1.930700000000000     -3.209700000000000      1.994100000000000
H      -5.203000000000000      0.583400000000000      0.435800000000000
H      -3.389700000000000      1.295700000000000     -1.930900000000000
H       2.491700000000000     -6.013500000000000      0.894100000000000
H       3.519400000000000     -4.589800000000000      0.638300000000000
H       3.301900000000000     -5.245300000000000      2.271100000000000
H       4.304500000000000      2.186200000000000     -2.703200000000000
H       5.476100000000000      0.860300000000000     -2.499300000000000
H       6.396700000000000      1.816500000000000     -0.566700000000000
H       5.667800000000000      3.321400000000000     -1.156400000000000
