59

O       1.156900000000000     -2.022600000000000     -1.176000000000000
N       1.299700000000000     -2.697000000000000      1.037500000000000
C      -3.943700000000000     -1.820600000000000     -0.363700000000000
C      -3.129700000000000     -2.571700000000000     -1.421700000000000
C      -3.817900000000000     -0.298200000000000     -0.461800000000000
C      -1.616900000000000     -2.314700000000000     -1.419300000000000
C      -4.646000000000000      0.394200000000000      0.625800000000000
C      -0.902700000000000     -2.628500000000000     -0.102300000000000
C      -4.582200000000000      1.923700000000000      0.560200000000000
C       0.606800000000000     -2.421400000000000     -0.146700000000000
C      -3.201900000000000      2.469800000000000      0.786800000000000
C       3.317500000000000      1.864200000000000      0.060800000000000
C       4.384700000000000      0.876000000000000     -0.416800000000000
C       1.910600000000000      1.290600000000000     -0.126800000000000
C       5.814800000000000      1.370200000000000     -0.188400000000000
C      -2.525600000000000      3.187600000000000     -0.122600000000000
C      -1.141600000000000      3.724200000000000      0.099600000000000
C       0.863200000000000      2.241900000000000      0.374400000000000
C      -0.094500000000000      2.772300000000000     -0.400600000000000
C       6.878600000000000      0.362300000000000     -0.596000000000000
C       0.626500000000000     -3.168600000000000      2.245100000000000
C       2.743400000000000     -2.533600000000000      1.152100000000000
H      -4.998200000000000     -2.101700000000000     -0.477700000000000
H      -3.643300000000000     -2.154200000000000      0.636500000000000
H      -3.521000000000000     -2.319200000000000     -2.415100000000000
H      -3.301800000000000     -3.647000000000000     -1.287600000000000
H      -2.767500000000000     -0.008800000000000     -0.355900000000000
H      -4.151600000000000      0.036300000000000     -1.451100000000000
H      -1.418800000000000     -1.274000000000000     -1.703200000000000
H      -1.171000000000000     -2.924500000000000     -2.216100000000000
H      -4.307300000000000      0.056700000000000      1.613700000000000
H      -5.695000000000000      0.087200000000000      0.531100000000000
H      -1.305700000000000     -1.975800000000000      0.679500000000000
H      -1.103000000000000     -3.674500000000000      0.155900000000000
H      -4.981400000000000      2.260600000000000     -0.404400000000000
H      -5.242900000000000      2.337700000000000      1.331500000000000
H      -2.745500000000000      2.265100000000000      1.752200000000000
H       3.485500000000000      2.097300000000000      1.119900000000000
H       3.415900000000000      2.805100000000000     -0.494800000000000
H       4.254900000000000     -0.074700000000000      0.112500000000000
H       4.239400000000000      0.668200000000000     -1.484000000000000
H       1.816900000000000      0.355500000000000      0.436000000000000
H       1.746800000000000      1.047300000000000     -1.183400000000000
H       5.970900000000000      2.299500000000000     -0.748900000000000
H       5.950200000000000      1.612800000000000      0.872500000000000
H      -2.977400000000000      3.384400000000000     -1.092000000000000
H      -0.991500000000000      3.949700000000000      1.162900000000000
H      -1.042900000000000      4.678500000000000     -0.430900000000000
H       0.892900000000000      2.490200000000000      1.432600000000000
H      -0.119700000000000      2.524100000000000     -1.459300000000000
H       6.798300000000000      0.120300000000000     -1.660400000000000
H       6.776500000000000     -0.565400000000000     -0.024100000000000
H       7.878100000000000      0.768400000000000     -0.412400000000000
H       1.042900000000000     -4.145900000000000      2.509200000000000
H      -0.453700000000000     -3.271300000000000      2.161900000000000
H       0.840100000000000     -2.462200000000000      3.053600000000000
H       3.181100000000000     -2.242800000000000      0.194400000000000
H       2.953000000000000     -1.758900000000000      1.895000000000000
H       3.185100000000000     -3.481900000000000      1.471200000000000
