59

O      -6.527000000000000     -1.244700000000000     -0.976600000000000
N      -6.694900000000000      0.883400000000000     -0.092200000000000
C      -8.468299999999999      2.422300000000000      0.099000000000000
C      -7.158200000000000      3.146400000000000      0.386700000000000
C      -8.018900000000000      1.164000000000000     -0.625800000000000
C      -6.186600000000000      2.012600000000000      0.678400000000000
C       4.540700000000000     -0.763300000000000      0.336600000000000
C       5.522500000000000      0.260200000000000     -0.236400000000000
C       3.122300000000000     -0.528500000000000     -0.188100000000000
C       6.946000000000000      0.005100000000000      0.262000000000000
C       2.149200000000000     -1.574400000000000      0.360400000000000
C      -6.050000000000000     -0.319500000000000     -0.317300000000000
C       7.934200000000000      1.008500000000000     -0.337200000000000
C       0.715700000000000     -1.401000000000000     -0.151000000000000
C      -4.680200000000000     -0.448300000000000      0.299200000000000
C       9.362299999999999      0.730000000000000      0.137100000000000
C      -0.261000000000000     -2.433200000000000      0.417700000000000
C      -4.096400000000000     -1.817100000000000     -0.030800000000000
C      10.387800000000000      1.725500000000000     -0.409400000000000
C      -1.632600000000000     -2.261100000000000     -0.169500000000000
C      -2.724900000000000     -1.979000000000000      0.555700000000000
C      11.818199999999999      1.411900000000000      0.001600000000000
H      -8.954700000000001      2.154700000000000      1.044800000000000
H      -9.169300000000000      3.021300000000000     -0.488600000000000
H      -6.836500000000000      3.691600000000000     -0.508900000000000
H      -7.234700000000000      3.860000000000000      1.211500000000000
H      -8.690600000000000      0.314500000000000     -0.470600000000000
H      -7.912800000000000      1.337500000000000     -1.702400000000000
H      -5.160500000000000      2.259200000000000      0.393700000000000
H      -6.206900000000000      1.731100000000000      1.736700000000000
H       4.543300000000000     -0.703400000000000      1.431700000000000
H       4.867900000000000     -1.775000000000000      0.067100000000000
H       5.208200000000000      1.271800000000000      0.048000000000000
H       5.504100000000000      0.211800000000000     -1.332000000000000
H       3.122600000000000     -0.570600000000000     -1.284000000000000
H       2.783300000000000      0.474500000000000      0.097600000000000
H       6.970500000000000      0.072000000000000      1.356400000000000
H       7.251100000000000     -1.013700000000000     -0.006700000000000
H       2.504300000000000     -2.576800000000000      0.090700000000000
H       2.146400000000000     -1.524000000000000      1.456400000000000
H       7.896900000000000      0.956900000000000     -1.432000000000000
H       7.644200000000000      2.026600000000000     -0.050800000000000
H       0.365400000000000     -0.391800000000000      0.101600000000000
H       0.721900000000000     -1.465100000000000     -1.247000000000000
H      -4.032300000000000      0.338600000000000     -0.103000000000000
H      -4.761600000000000     -0.317200000000000      1.384300000000000
H       9.393200000000000      0.752300000000000      1.233500000000000
H       9.650200000000000     -0.284200000000000     -0.166700000000000
H       0.091900000000000     -3.444400000000000      0.182800000000000
H      -0.287600000000000     -2.350400000000000      1.510800000000000
H      -4.067900000000000     -1.965200000000000     -1.118000000000000
H      -4.738100000000000     -2.608000000000000      0.377800000000000
H      10.332500000000000      1.738700000000000     -1.504500000000000
H      10.131900000000000      2.735000000000000     -0.066500000000000
H      -1.723100000000000     -2.384300000000000     -1.246000000000000
H      -2.635900000000000     -1.869400000000000      1.633800000000000
H      11.922000000000001      1.423700000000000      1.091100000000000
H      12.121200000000000      0.424900000000000     -0.361800000000000
H      12.505500000000000      2.154800000000000     -0.415100000000000
