59

O      -5.250200000000000     -0.111800000000000     -1.931600000000000
N      -5.725800000000000      1.289900000000000     -0.153200000000000
C      -6.605400000000000      2.894300000000000      1.343800000000000
C      -6.439900000000000      3.533100000000000     -0.029400000000000
C      -5.731600000000000      1.651200000000000      1.262500000000000
C      -6.340300000000000      2.334900000000000     -0.958700000000000
C       2.789200000000000     -1.518000000000000      0.011100000000000
C       3.748800000000000     -0.351200000000000      0.270500000000000
C       1.327700000000000     -1.173300000000000      0.307200000000000
C       5.207200000000000     -0.688400000000000     -0.048900000000000
C       0.363800000000000     -2.333700000000000      0.036800000000000
C       6.167600000000000      0.479900000000000      0.198000000000000
C      -1.104900000000000     -2.082400000000000      0.396600000000000
C       7.640700000000000      0.211000000000000     -0.125100000000000
C      -2.005800000000000     -3.298800000000000      0.159900000000000
C       8.543400000000000      1.427900000000000      0.087800000000000
C      -5.225900000000000      0.136800000000000     -0.726500000000000
C      -3.474600000000000     -3.047300000000000      0.520300000000000
C       9.982900000000001      1.130300000000000     -0.333700000000000
C      -4.621100000000000     -0.849400000000000      0.190400000000000
C      -4.122900000000000     -1.982500000000000     -0.318400000000000
C      10.877000000000001      2.347600000000000     -0.159200000000000
H      -6.319100000000000      3.558800000000000      2.163600000000000
H      -7.653100000000000      2.604200000000000      1.489100000000000
H      -7.261500000000000      4.204900000000000     -0.291800000000000
H      -5.505300000000000      4.106300000000000     -0.057300000000000
H      -4.699200000000000      1.865800000000000      1.559100000000000
H      -6.122900000000000      0.834600000000000      1.875900000000000
H      -7.331600000000000      1.979900000000000     -1.261900000000000
H      -5.748700000000000      2.536000000000000     -1.856900000000000
H       3.090600000000000     -2.375100000000000      0.625600000000000
H       2.879100000000000     -1.831200000000000     -1.036300000000000
H       3.670000000000000     -0.046900000000000      1.321400000000000
H       3.438200000000000      0.510200000000000     -0.333500000000000
H       1.236600000000000     -0.870400000000000      1.357500000000000
H       1.025700000000000     -0.310300000000000     -0.298600000000000
H       5.522800000000000     -1.545300000000000      0.558600000000000
H       5.284600000000000     -0.998200000000000     -1.098200000000000
H       0.425800000000000     -2.602600000000000     -1.025300000000000
H       0.711400000000000     -3.210900000000000      0.597500000000000
H       6.089400000000000      0.784300000000000      1.249400000000000
H       5.830700000000000      1.338200000000000     -0.397400000000000
H      -1.460700000000000     -1.229700000000000     -0.193200000000000
H      -1.169100000000000     -1.787800000000000      1.451200000000000
H       7.997700000000000     -0.621000000000000      0.494100000000000
H       7.716300000000000     -0.117000000000000     -1.169300000000000
H      -1.933800000000000     -3.605600000000000     -0.891200000000000
H      -1.638300000000000     -4.140600000000000      0.759500000000000
H       8.517500000000000      1.724300000000000      1.143200000000000
H       8.159000000000001      2.273700000000000     -0.495200000000000
H      -4.035600000000000     -3.979100000000000      0.378900000000000
H      -3.546500000000000     -2.801400000000000      1.587000000000000
H      10.381100000000000      0.301000000000000      0.262400000000000
H      10.007199999999999      0.816500000000000     -1.383800000000000
H      -4.561200000000000     -0.654100000000000      1.253100000000000
H      -4.170100000000000     -2.193100000000000     -1.383700000000000
H      10.524100000000001      3.184600000000000     -0.770200000000000
H      11.901400000000001      2.112400000000000     -0.464500000000000
H      10.899699999999999      2.670600000000000      0.886500000000000
