59

O       4.781600000000000      1.894100000000000      0.514100000000000
N       6.124000000000000      0.173200000000000     -0.284600000000000
C      -6.487800000000000      0.059100000000000     -0.244900000000000
C      -7.656900000000000      1.038300000000000     -0.418200000000000
C      -6.821700000000000     -1.010100000000000      0.804300000000000
C      -5.210200000000000      0.805800000000000      0.133700000000000
C      -8.959000000000000      0.310300000000000     -0.744000000000000
C      -8.124800000000000     -1.734900000000000      0.475500000000000
C      -9.282400000000001     -0.757800000000000      0.296200000000000
C      -3.963400000000000     -0.011800000000000     -0.202400000000000
C      -2.685600000000000      0.753200000000000      0.146700000000000
C      -1.437600000000000     -0.078600000000000     -0.158700000000000
C      -0.160400000000000      0.703600000000000      0.155600000000000
C       1.123000000000000     -0.073700000000000     -0.153300000000000
C       7.369000000000000      0.894200000000000     -0.011000000000000
C       6.289500000000000     -1.133100000000000     -0.934100000000000
C       8.336700000000000      0.038100000000000      0.800300000000000
C       7.240700000000000     -2.024900000000000     -0.139800000000000
C       8.564800000000000     -1.320700000000000      0.143800000000000
C       2.399500000000000      0.738100000000000      0.091200000000000
C       3.661000000000000     -0.032800000000000     -0.288600000000000
C       4.899900000000000      0.770500000000000      0.018200000000000
H      -6.336100000000000     -0.440200000000000     -1.211900000000000
H      -7.790500000000000      1.624800000000000      0.500000000000000
H      -7.434500000000000      1.751100000000000     -1.221300000000000
H      -6.018100000000000     -1.751400000000000      0.870600000000000
H      -6.910200000000000     -0.547700000000000      1.795800000000000
H      -5.157600000000000      1.749100000000000     -0.425200000000000
H      -5.216900000000000      1.072800000000000      1.197600000000000
H      -8.878299999999999     -0.156300000000000     -1.733500000000000
H      -9.781200000000000      1.032700000000000     -0.798000000000000
H      -8.363200000000001     -2.445200000000000      1.275300000000000
H      -7.995000000000000     -2.320100000000000     -0.443200000000000
H     -10.183400000000001     -1.304300000000000     -0.004000000000000
H      -9.505300000000000     -0.276300000000000      1.256300000000000
H      -3.972100000000000     -0.959200000000000      0.347600000000000
H      -3.958200000000000     -0.258400000000000     -1.271100000000000
H      -2.652700000000000      1.689900000000000     -0.423000000000000
H      -2.695000000000000      1.021300000000000      1.210200000000000
H      -1.455300000000000     -1.003700000000000      0.429900000000000
H      -1.437200000000000     -0.367500000000000     -1.216700000000000
H      -0.159500000000000      0.989000000000000      1.214800000000000
H      -0.159700000000000      1.635800000000000     -0.423100000000000
H       1.100300000000000     -0.395700000000000     -1.201900000000000
H       1.149100000000000     -0.984600000000000      0.457300000000000
H       7.170000000000000      1.830100000000000      0.520600000000000
H       7.811200000000000      1.156100000000000     -0.979600000000000
H       6.696300000000000     -0.942700000000000     -1.934600000000000
H       5.338900000000000     -1.651600000000000     -1.068200000000000
H       7.927300000000000     -0.115700000000000      1.806600000000000
H       9.291800000000000      0.562100000000000      0.916100000000000
H       7.423500000000000     -2.955900000000000     -0.687600000000000
H       6.769400000000000     -2.296700000000000      0.813000000000000
H       9.113300000000001     -1.183800000000000     -0.796200000000000
H       9.188400000000000     -1.947100000000000      0.791200000000000
H       2.350300000000000      1.670300000000000     -0.486000000000000
H       2.438500000000000      1.024700000000000      1.149900000000000
H       3.698900000000000     -0.970000000000000      0.277800000000000
H       3.637400000000000     -0.259400000000000     -1.360100000000000
