60

N       0.910800000000000     -0.338900000000000     -0.094100000000000
N      -2.601600000000000      0.770000000000000      0.456700000000000
C       5.464800000000000      0.766000000000000     -0.009200000000000
C       4.556200000000000      0.119100000000000     -1.105100000000000
C       5.976400000000000     -0.692100000000000      0.218500000000000
C       5.741500000000000     -0.870800000000000     -1.308200000000000
C       3.309400000000000     -0.609200000000000     -0.570200000000000
C       5.037500000000000     -1.583700000000000      1.038500000000000
C       3.583800000000000     -1.133000000000000      0.852400000000000
C       6.469200000000000      1.830400000000000     -0.385200000000000
C       4.670500000000000      1.315200000000000      1.172000000000000
C       2.107600000000000      0.330800000000000     -0.582500000000000
C      -0.232000000000000      0.567800000000000     -0.102200000000000
C      -1.467500000000000     -0.138400000000000      0.448100000000000
C      -3.800900000000000      0.092500000000000      0.959100000000000
C      -4.109700000000000     -1.107800000000000      0.052000000000000
C      -4.934300000000000      1.103100000000000      1.178100000000000
C      -5.449300000000000     -1.795100000000000      0.327900000000000
C      -5.460500000000000      1.853200000000000     -0.045200000000000
C      -6.549500000000000     -1.467700000000000     -0.684500000000000
C      -6.121000000000000      1.028900000000000     -1.150100000000000
C      -7.101400000000000     -0.040300000000000     -0.666800000000000
H       4.355900000000000      0.737900000000000     -1.986700000000000
H       7.022700000000000     -0.793600000000000      0.524400000000000
H       5.484100000000000     -1.879000000000000     -1.647800000000000
H       6.550200000000000     -0.503800000000000     -1.950500000000000
H       3.094200000000000     -1.460700000000000     -1.230800000000000
H       5.154400000000000     -2.628600000000000      0.726100000000000
H       5.300400000000000     -1.546700000000000      2.101800000000000
H       2.959000000000000     -2.027100000000000      0.999900000000000
H       3.210700000000000     -0.482100000000000      1.646800000000000
H       5.972400000000000      2.771600000000000     -0.647800000000000
H       7.073400000000000      1.542700000000000     -1.251500000000000
H       7.170000000000000      2.029700000000000      0.433700000000000
H       5.193200000000000      2.200700000000000      1.570300000000000
H       4.669100000000000      0.697000000000000      2.071500000000000
H       3.702500000000000      1.737800000000000      0.942900000000000
H       1.938600000000000      0.643200000000000     -1.622400000000000
H       2.248300000000000      1.253800000000000     -0.029600000000000
H       0.710900000000000     -1.156900000000000     -0.668900000000000
H      -0.429900000000000      0.918000000000000     -1.123300000000000
H      -0.013700000000000      1.446500000000000      0.518100000000000
H      -1.632100000000000     -1.000300000000000     -0.205200000000000
H      -1.261900000000000     -0.508000000000000      1.460800000000000
H      -3.574100000000000     -0.305800000000000      1.958900000000000
H      -2.390500000000000      1.577100000000000      1.043000000000000
H      -3.363200000000000     -1.888400000000000      0.248300000000000
H      -4.007700000000000     -0.862800000000000     -1.010700000000000
H      -4.577300000000000      1.861200000000000      1.890500000000000
H      -5.766600000000000      0.617700000000000      1.699500000000000
H      -5.796500000000000     -1.612000000000000      1.350500000000000
H      -5.284600000000000     -2.879500000000000      0.264600000000000
H      -4.656800000000000      2.454100000000000     -0.488000000000000
H      -6.202500000000000      2.578000000000000      0.316500000000000
H      -7.389500000000000     -2.146800000000000     -0.487900000000000
H      -6.199200000000000     -1.710800000000000     -1.695700000000000
H      -5.364500000000000      0.600200000000000     -1.814600000000000
H      -6.676200000000000      1.737300000000000     -1.779900000000000
H      -7.958800000000000     -0.030800000000000     -1.353400000000000
H      -7.512800000000000      0.203900000000000      0.318600000000000
