60

N       0.817600000000000      0.558300000000000      0.182600000000000
N       3.774000000000000     -1.080600000000000      1.588600000000000
C      -0.611700000000000      0.473800000000000     -0.120800000000000
C      -1.252100000000000      1.836500000000000      0.220700000000000
C      -0.804400000000000      0.069300000000000     -1.600600000000000
C      -2.786600000000000      1.846700000000000      0.154100000000000
C      -1.364000000000000     -1.348800000000000     -1.816400000000000
C       1.360400000000000      1.866100000000000     -0.216400000000000
C       1.070800000000000      0.249200000000000      1.599700000000000
C      -3.441800000000000      1.124000000000000      1.335000000000000
C      -2.893500000000000     -1.438900000000000     -1.701400000000000
C      -4.921900000000000      0.793400000000000      1.126800000000000
C      -3.378700000000000     -1.847900000000000     -0.309400000000000
C       2.887500000000000      1.822800000000000     -0.395100000000000
C      -5.300400000000000     -0.079600000000000     -0.079000000000000
C      -4.856200000000000     -1.549200000000000     -0.039200000000000
C       1.355100000000000     -1.247900000000000      1.807200000000000
C       3.324900000000000      0.910400000000000     -1.550300000000000
C       4.770600000000000      0.416200000000000     -1.420300000000000
C       2.595500000000000     -1.749700000000000      1.055000000000000
C       4.904100000000000     -0.903700000000000     -0.653900000000000
C       4.750800000000000     -0.720400000000000      0.833000000000000
H      -1.054900000000000     -0.301100000000000      0.505000000000000
H      -0.944500000000000      2.613400000000000     -0.489500000000000
H      -0.969100000000000      2.179300000000000      1.223900000000000
H       0.163900000000000      0.095900000000000     -2.119100000000000
H      -1.421900000000000      0.797200000000000     -2.139300000000000
H      -3.112500000000000      1.433500000000000     -0.800800000000000
H      -3.130800000000000      2.889100000000000      0.162400000000000
H      -0.867900000000000     -2.072900000000000     -1.159800000000000
H      -1.103700000000000     -1.637100000000000     -2.843500000000000
H       1.134300000000000      2.651500000000000      0.515900000000000
H       0.969500000000000      2.182300000000000     -1.192200000000000
H       0.233800000000000      0.549100000000000      2.243000000000000
H       1.930900000000000      0.808200000000000      1.985400000000000
H      -3.362700000000000      1.776400000000000      2.215100000000000
H      -2.898700000000000      0.221400000000000      1.614400000000000
H      -3.247600000000000     -2.201700000000000     -2.407400000000000
H      -3.340100000000000     -0.499400000000000     -2.034900000000000
H      -5.300200000000000      0.315000000000000      2.039000000000000
H      -5.468900000000000      1.741000000000000      1.035500000000000
H      -3.231200000000000     -2.931800000000000     -0.209100000000000
H      -2.766500000000000     -1.415300000000000      0.474700000000000
H       3.370900000000000      1.535100000000000      0.541500000000000
H       3.243200000000000      2.839800000000000     -0.605800000000000
H      -5.002800000000000      0.399400000000000     -1.015000000000000
H      -6.399100000000000     -0.091900000000000     -0.111000000000000
H      -5.126100000000000     -1.973600000000000      0.935900000000000
H      -5.449100000000000     -2.098300000000000     -0.782400000000000
H       1.487500000000000     -1.428900000000000      2.881400000000000
H       0.486400000000000     -1.839900000000000      1.494700000000000
H       3.236800000000000      1.489600000000000     -2.478700000000000
H       2.656600000000000      0.052000000000000     -1.669900000000000
H       5.402100000000000      1.193000000000000     -0.972800000000000
H       5.155300000000000      0.242300000000000     -2.433300000000000
H       2.697700000000000     -2.827600000000000      1.223500000000000
H       2.445100000000000     -1.602500000000000     -0.016100000000000
H       5.922000000000000     -1.284600000000000     -0.804000000000000
H       4.229500000000000     -1.664400000000000     -1.051300000000000
H       5.584600000000000     -0.191400000000000      1.327100000000000
