60

N      -1.216900000000000      0.318800000000000      0.876500000000000
N       2.219000000000000     -0.787000000000000     -0.041600000000000
C      -5.078300000000000     -0.148400000000000     -0.861800000000000
C      -4.997300000000000      0.379500000000000      0.607400000000000
C      -4.352200000000000     -1.408600000000000     -0.293000000000000
C      -5.151000000000000     -1.117500000000000      1.008500000000000
C      -3.621100000000000      0.932000000000000      1.032900000000000
C      -2.843300000000000     -1.245800000000000     -0.068200000000000
C      -2.508400000000000      0.232100000000000      0.210200000000000
C      -4.211100000000000      0.655900000000000     -1.827000000000000
C      -6.417700000000000     -0.324000000000000     -1.538200000000000
C      -3.590200000000000      2.451700000000000      0.867900000000000
C      -0.164700000000000     -0.259500000000000      0.047600000000000
C       1.174100000000000     -0.194900000000000      0.776400000000000
C       3.515300000000000     -0.705800000000000      0.639400000000000
C       4.534800000000000     -1.548700000000000     -0.141200000000000
C       3.900000000000000      0.751300000000000      0.933400000000000
C       5.981400000000000     -1.420100000000000      0.342500000000000
C       4.121100000000000      1.685600000000000     -0.255600000000000
C       6.871100000000000     -0.546700000000000     -0.545200000000000
C       5.257800000000000      1.345000000000000     -1.218800000000000
C       6.577600000000000      0.955200000000000     -0.551900000000000
H      -5.834500000000000      1.003500000000000      0.939400000000000
H      -4.603600000000000     -2.363400000000000     -0.766200000000000
H      -6.180700000000000     -1.493100000000000      1.016700000000000
H      -4.682000000000000     -1.423000000000000      1.948900000000000
H      -3.474200000000000      0.713400000000000      2.099900000000000
H      -2.319500000000000     -1.596700000000000     -0.965600000000000
H      -2.534900000000000     -1.896400000000000      0.760600000000000
H      -2.313800000000000      0.782600000000000     -0.707200000000000
H      -4.786900000000000      0.886200000000000     -2.737700000000000
H      -3.914600000000000      1.651600000000000     -1.519300000000000
H      -3.377800000000000      0.082400000000000     -2.247800000000000
H      -6.320400000000000     -0.863300000000000     -2.487500000000000
H      -7.119200000000000     -0.896100000000000     -0.922600000000000
H      -6.893600000000000      0.642600000000000     -1.739600000000000
H      -2.570900000000000      2.848300000000000      0.887300000000000
H      -4.098200000000000      2.832600000000000     -0.018300000000000
H      -4.122200000000000      2.906500000000000      1.713100000000000
H      -0.991700000000000      1.289200000000000      1.091000000000000
H      -0.355800000000000     -1.315200000000000     -0.171100000000000
H      -0.089000000000000      0.276900000000000     -0.907100000000000
H       1.355100000000000      0.865300000000000      0.972800000000000
H       1.097200000000000     -0.715400000000000      1.739500000000000
H       1.991500000000000     -1.762000000000000     -0.235100000000000
H       3.414100000000000     -1.199300000000000      1.617300000000000
H       4.240800000000000     -2.601900000000000     -0.021300000000000
H       4.469300000000000     -1.366100000000000     -1.219300000000000
H       3.180800000000000      1.222300000000000      1.612500000000000
H       4.811400000000000      0.748300000000000      1.543100000000000
H       6.420800000000000     -2.426800000000000      0.325800000000000
H       6.035700000000000     -1.096900000000000      1.387500000000000
H       4.322900000000000      2.685000000000000      0.153100000000000
H       3.191100000000000      1.785400000000000     -0.828300000000000
H       6.846300000000000     -0.927600000000000     -1.574100000000000
H       7.906200000000000     -0.677700000000000     -0.203300000000000
H       5.437400000000000      2.246000000000000     -1.821300000000000
H       4.938800000000000      0.587700000000000     -1.941200000000000
H       7.385100000000000      1.425300000000000     -1.129700000000000
H       6.661300000000000      1.372100000000000      0.457500000000000
