60

N      -0.612800000000000     -2.550100000000000     -0.223200000000000
N       5.618500000000000     -0.661300000000000      1.279400000000000
C       1.721800000000000     -3.369700000000000     -0.225400000000000
C       2.322100000000000     -1.964800000000000     -0.113900000000000
C       0.356600000000000     -3.386400000000000     -0.914900000000000
C       3.692300000000000     -1.999700000000000      0.568000000000000
C      -4.535000000000000      0.237600000000000      0.065200000000000
C      -1.891600000000000     -2.545800000000000     -0.929400000000000
C      -3.886600000000000      1.433800000000000      0.777800000000000
C      -3.559700000000000     -0.611600000000000     -0.720400000000000
C       4.306500000000000     -0.603000000000000      0.646000000000000
C      -2.896800000000000     -1.677900000000000     -0.231300000000000
C      -1.525000000000000      1.312400000000000      1.791600000000000
C      -0.793900000000000      2.092600000000000      0.718400000000000
C      -2.840400000000000      1.019000000000000      1.775900000000000
C       0.276000000000000      1.303700000000000     -0.051700000000000
C      -3.323100000000000     -0.162800000000000     -2.140000000000000
C      -0.661900000000000      0.777800000000000      2.907600000000000
C       0.867000000000000      2.068500000000000     -1.203100000000000
C       1.998400000000000      2.798900000000000     -1.223800000000000
C       2.938100000000000      2.990000000000000     -0.067200000000000
C       2.429700000000000      3.498800000000000     -2.485600000000000
H       2.406500000000000     -4.015300000000000     -0.788900000000000
H       1.629000000000000     -3.807200000000000      0.776900000000000
H       2.414000000000000     -1.522600000000000     -1.113200000000000
H       1.657300000000000     -1.321000000000000      0.470900000000000
H       0.000500000000000     -4.422800000000000     -0.960000000000000
H       0.486300000000000     -3.037300000000000     -1.946700000000000
H       3.587900000000000     -2.419100000000000      1.576600000000000
H       4.360900000000000     -2.666400000000000      0.008700000000000
H      -5.035100000000000     -0.393400000000000      0.812800000000000
H      -5.334700000000000      0.591900000000000     -0.597300000000000
H      -0.743200000000000     -2.900500000000000      0.725800000000000
H      -3.499000000000000      2.131200000000000      0.031000000000000
H      -4.668600000000000      1.980300000000000      1.319600000000000
H      -1.742900000000000     -2.246600000000000     -1.970200000000000
H      -2.299400000000000     -3.564500000000000     -0.953500000000000
H       3.655200000000000      0.064000000000000      1.221200000000000
H       4.413500000000000     -0.181100000000000     -0.359100000000000
H      -3.106100000000000     -1.961600000000000      0.800100000000000
H      -1.493600000000000      2.520200000000000     -0.005700000000000
H      -0.319100000000000      2.959100000000000      1.198800000000000
H      -3.236200000000000      0.423100000000000      2.598400000000000
H       1.066100000000000      0.978400000000000      0.632200000000000
H      -0.166500000000000      0.385000000000000     -0.454900000000000
H      -3.981800000000000     -0.705900000000000     -2.824700000000000
H      -3.538500000000000      0.906500000000000     -2.246600000000000
H      -2.284500000000000     -0.284600000000000     -2.459200000000000
H       0.033500000000000      0.021500000000000      2.530800000000000
H      -0.084500000000000      1.590500000000000      3.360500000000000
H      -1.251800000000000      0.313800000000000      3.705400000000000
H       0.273600000000000      2.019500000000000     -2.115500000000000
H       5.526500000000000     -1.025800000000000      2.226800000000000
H       5.990900000000000      0.282900000000000      1.371700000000000
H       3.915000000000000      2.552400000000000     -0.296900000000000
H       3.076500000000000      4.057800000000000      0.133100000000000
H       2.576500000000000      2.534900000000000      0.858100000000000
H       2.492600000000000      4.579000000000000     -2.317400000000000
H       3.414000000000000      3.137700000000000     -2.801700000000000
H       1.733700000000000      3.332300000000000     -3.314500000000000
