60

N      -2.146000000000000     -1.413200000000000      0.425200000000000
N      -5.486300000000000      1.271200000000000     -0.255000000000000
C       0.050200000000000     -1.481600000000000     -0.378300000000000
C       2.529900000000000      0.276400000000000     -0.009600000000000
C       0.850500000000000     -1.463200000000000      0.947300000000000
C       0.977900000000000     -1.099600000000000     -1.542500000000000
C       1.622200000000000     -0.158600000000000      1.176100000000000
C       1.684300000000000      0.238100000000000     -1.313200000000000
C      -0.579600000000000     -2.875900000000000     -0.592800000000000
C      -1.195800000000000     -0.579000000000000     -0.312700000000000
C       2.971100000000000      1.742400000000000      0.261900000000000
C       3.740200000000000     -0.688200000000000     -0.161800000000000
C      -2.045800000000000     -2.741900000000000     -0.178100000000000
C       4.168900000000000      2.242100000000000     -0.547600000000000
C       4.915900000000000     -0.442600000000000      0.787200000000000
C       5.499200000000000      1.989500000000000      0.160100000000000
C       5.942300000000000      0.531800000000000      0.210900000000000
C      -3.500600000000000     -0.884000000000000      0.392300000000000
C      -3.549400000000000      0.484600000000000      1.074100000000000
C      -4.953100000000000      1.093800000000000      1.090200000000000
C      -4.637800000000000      2.177800000000000     -1.030700000000000
C      -6.858100000000000      1.780100000000000     -0.203200000000000
H       1.557500000000000     -2.301500000000000      0.958600000000000
H       0.186900000000000     -1.630700000000000      1.805000000000000
H       0.405900000000000     -1.039800000000000     -2.477300000000000
H       1.724100000000000     -1.888700000000000     -1.696900000000000
H       0.899400000000000      0.639000000000000      1.390600000000000
H       2.222100000000000     -0.264800000000000      2.088500000000000
H       2.317200000000000      0.455800000000000     -2.182300000000000
H       0.926400000000000      1.031700000000000     -1.289400000000000
H      -0.074900000000000     -3.649800000000000     -0.003500000000000
H      -0.527800000000000     -3.182500000000000     -1.644600000000000
H      -0.975100000000000      0.362200000000000      0.195900000000000
H      -1.567100000000000     -0.350000000000000     -1.320600000000000
H       3.180900000000000      1.879200000000000      1.331200000000000
H       2.121200000000000      2.407500000000000      0.055800000000000
H       4.110900000000000     -0.661600000000000     -1.195100000000000
H       3.408700000000000     -1.721800000000000     -0.013200000000000
H      -2.680900000000000     -2.839800000000000     -1.067800000000000
H      -2.332600000000000     -3.522700000000000      0.533700000000000
H       4.064700000000000      3.329000000000000     -0.660400000000000
H       4.178700000000000      1.827700000000000     -1.561000000000000
H       5.429900000000000     -1.401300000000000      0.934100000000000
H       4.580500000000000     -0.120200000000000      1.778500000000000
H       5.453300000000000      2.389100000000000      1.181100000000000
H       6.280300000000000      2.563800000000000     -0.353900000000000
H       6.232500000000000      0.206600000000000     -0.796100000000000
H       6.853200000000000      0.476000000000000      0.820200000000000
H      -3.863700000000000     -0.816500000000000     -0.640400000000000
H      -4.171700000000000     -1.567600000000000      0.927300000000000
H      -3.226200000000000      0.367400000000000      2.117800000000000
H      -2.850700000000000      1.201500000000000      0.634000000000000
H      -4.925300000000000      2.045900000000000      1.636500000000000
H      -5.608400000000000      0.421800000000000      1.659500000000000
H      -4.469800000000000      3.132600000000000     -0.519100000000000
H      -3.670700000000000      1.727400000000000     -1.273900000000000
H      -5.102000000000000      2.396400000000000     -2.000100000000000
H      -6.916500000000000      2.763700000000000      0.277000000000000
H      -7.277000000000000      1.862600000000000     -1.212300000000000
H      -7.505000000000000      1.087900000000000      0.347300000000000
