60

N       1.376600000000000     -0.751300000000000      0.478400000000000
N      -1.993400000000000      0.765400000000000      0.016900000000000
C       3.792200000000000      1.298000000000000      0.162200000000000
C       3.021600000000000      0.455900000000000     -0.894100000000000
C       5.004200000000000      0.412900000000000     -0.225700000000000
C       4.380300000000000      0.369200000000000     -1.645300000000000
C       2.539000000000000     -0.912000000000000     -0.400100000000000
C       5.005000000000000     -0.932000000000000      0.494900000000000
C       3.667200000000000     -1.695100000000000      0.332900000000000
C       3.959900000000000      2.761600000000000     -0.249000000000000
C       3.317000000000000      1.317400000000000      1.600400000000000
C       3.908200000000000     -3.042600000000000     -0.363900000000000
C       0.279600000000000     -0.096300000000000     -0.225800000000000
C      -0.907200000000000      0.097200000000000      0.713300000000000
C      -3.147100000000000      0.932000000000000      0.902500000000000
C      -4.209100000000000      1.840700000000000      0.271400000000000
C      -3.670300000000000     -0.416700000000000      1.416700000000000
C      -4.874700000000000      1.344500000000000     -1.012300000000000
C      -3.921900000000000     -1.515700000000000      0.376400000000000
C      -6.143400000000000      0.521100000000000     -0.777500000000000
C      -5.396400000000000     -1.784900000000000      0.086300000000000
C      -5.987300000000000     -0.969500000000000     -1.058600000000000
H       2.300500000000000      1.005300000000000     -1.507300000000000
H       5.981000000000000      0.905500000000000     -0.170400000000000
H       4.626500000000000      1.201900000000000     -2.311000000000000
H       4.556300000000000     -0.547900000000000     -2.217400000000000
H       2.217900000000000     -1.493400000000000     -1.275300000000000
H       5.216700000000000     -0.780700000000000      1.560700000000000
H       5.839900000000000     -1.534900000000000      0.116600000000000
H       3.331300000000000     -1.960800000000000      1.345600000000000
H       3.010800000000000      3.301900000000000     -0.148300000000000
H       4.694500000000000      3.262800000000000      0.392800000000000
H       4.293500000000000      2.915300000000000     -1.278000000000000
H       2.345700000000000      1.818000000000000      1.688500000000000
H       3.209900000000000      0.330100000000000      2.053000000000000
H       4.024700000000000      1.862100000000000      2.237000000000000
H       1.071300000000000     -1.665100000000000      0.812500000000000
H       4.646000000000000     -3.637400000000000      0.185500000000000
H       2.982600000000000     -3.626400000000000     -0.411300000000000
H       4.277200000000000     -2.903100000000000     -1.385200000000000
H       0.556800000000000      0.903000000000000     -0.572100000000000
H      -0.026600000000000     -0.690200000000000     -1.096200000000000
H      -1.196300000000000     -0.898700000000000      1.062900000000000
H      -0.592900000000000      0.684700000000000      1.585600000000000
H      -1.679900000000000      1.676500000000000     -0.316700000000000
H      -2.805200000000000      1.486800000000000      1.789000000000000
H      -4.972700000000000      2.082700000000000      1.021700000000000
H      -3.725200000000000      2.800600000000000      0.039500000000000
H      -2.970500000000000     -0.809700000000000      2.166200000000000
H      -4.587000000000000     -0.232900000000000      1.992500000000000
H      -4.164300000000000      0.826800000000000     -1.665400000000000
H      -5.182000000000000      2.242000000000000     -1.566900000000000
H      -3.514900000000000     -2.443600000000000      0.801500000000000
H      -3.368500000000000     -1.355900000000000     -0.554400000000000
H      -6.901100000000000      0.893500000000000     -1.480500000000000
H      -6.559900000000000      0.684400000000000      0.222800000000000
H      -6.004100000000000     -1.669300000000000      0.991300000000000
H      -5.486400000000000     -2.841500000000000     -0.200000000000000
H      -5.410700000000000     -1.130300000000000     -1.977400000000000
H      -6.988600000000000     -1.374500000000000     -1.257500000000000
