60

N      -7.564500000000000     -0.292600000000000      0.278700000000000
N      -9.392400000000000     -0.040800000000000     -0.930800000000000
C       2.533500000000000      0.078400000000000     -0.308400000000000
C       1.266300000000000      0.335900000000000      0.513200000000000
C       3.827200000000000      0.318300000000000      0.474000000000000
C      -0.061400000000000      0.060000000000000     -0.199200000000000
C       5.057700000000000      0.055400000000000     -0.398500000000000
C      -1.289300000000000      0.311600000000000      0.678000000000000
C       6.383000000000000      0.256000000000000      0.342700000000000
C      -2.582300000000000     -0.011500000000000     -0.074200000000000
C       7.611500000000000     -0.078200000000000     -0.508200000000000
C      -3.810400000000000      0.206500000000000      0.811100000000000
C       8.902200000000001      0.068800000000000      0.302200000000000
C      -5.099800000000000     -0.148900000000000      0.070400000000000
C      10.163300000000000     -0.280900000000000     -0.493400000000000
C      -6.321300000000000      0.031700000000000      0.970300000000000
C      11.455399999999999     -0.110500000000000      0.306600000000000
C      -8.339000000000000      0.567100000000000     -0.432000000000000
C      12.676200000000000     -0.457100000000000     -0.532000000000000
C      -8.140100000000000     -1.521500000000000      0.242200000000000
C      -9.274500000000000     -1.343200000000000     -0.514100000000000
C      -8.000999999999999      1.995500000000000     -0.598600000000000
H       2.518000000000000      0.723600000000000     -1.195300000000000
H       2.517100000000000     -0.957100000000000     -0.670300000000000
H       1.273600000000000      1.380100000000000      0.850700000000000
H       1.308300000000000     -0.280900000000000      1.420100000000000
H       3.850600000000000      1.351500000000000      0.839900000000000
H       3.851700000000000     -0.337700000000000      1.352200000000000
H      -0.120700000000000      0.687700000000000     -1.096800000000000
H      -0.068200000000000     -0.982200000000000     -0.541600000000000
H       5.014400000000000     -0.972900000000000     -0.778800000000000
H       5.032900000000000      0.717500000000000     -1.272900000000000
H      -1.224600000000000     -0.306300000000000      1.581600000000000
H      -1.301000000000000      1.359200000000000      1.002000000000000
H       6.385400000000000     -0.375100000000000      1.240300000000000
H       6.449700000000000      1.295600000000000      0.686500000000000
H      -2.656000000000000      0.619200000000000     -0.968400000000000
H      -2.557000000000000     -1.053900000000000     -0.414700000000000
H       7.645200000000000      0.582800000000000     -1.382300000000000
H       7.530700000000000     -1.106000000000000     -0.881500000000000
H      -3.725200000000000     -0.410500000000000      1.714000000000000
H      -3.849000000000000      1.253100000000000      1.136700000000000
H       8.850500000000000     -0.576700000000000      1.187800000000000
H       8.983000000000001      1.100400000000000      0.666800000000000
H      -5.050900000000000     -1.188000000000000     -0.279200000000000
H      -5.194300000000000      0.477400000000000     -0.824900000000000
H      10.088500000000000     -1.317700000000000     -0.844400000000000
H      10.206899999999999      0.352900000000000     -1.388000000000000
H      -6.258900000000000     -0.628100000000000      1.844100000000000
H      -6.395600000000000      1.058000000000000      1.344700000000000
H      11.430000000000000     -0.754400000000000      1.193300000000000
H      11.540400000000000      0.924100000000000      0.658200000000000
H      13.589300000000000     -0.329600000000000      0.057800000000000
H      12.635000000000000     -1.496100000000000     -0.874100000000000
H      12.745900000000001      0.192100000000000     -1.410700000000000
H      -7.718800000000000     -2.388400000000000      0.732000000000000
H     -10.011799999999999     -2.086400000000000     -0.780300000000000
H      -8.032999999999999      2.519800000000000      0.361400000000000
H      -7.007600000000000      2.122400000000000     -1.038700000000000
H      -8.721299999999999      2.481400000000000     -1.264900000000000
