60

N       1.214700000000000     -1.033000000000000      0.090100000000000
N      -2.235400000000000      0.069800000000000      0.956600000000000
C       5.052700000000000      0.833200000000000      0.099600000000000
C       4.931000000000000     -0.575200000000000     -0.568300000000000
C       4.015700000000000      1.273000000000000     -0.982300000000000
C       4.715500000000000      0.221700000000000     -1.889200000000000
C       3.668500000000000     -1.376200000000000     -0.188100000000000
C       2.562300000000000      0.877400000000000     -0.690800000000000
C       2.526500000000000     -0.394400000000000      0.177700000000000
C       6.387100000000000      1.539100000000000      0.157400000000000
C       4.487100000000000      0.865400000000000      1.517100000000000
C       3.990700000000000     -2.326500000000000      0.965800000000000
C       0.164800000000000     -0.129100000000000      0.547000000000000
C      -1.191800000000000     -0.824500000000000      0.484900000000000
C      -3.547000000000000     -0.580400000000000      0.875700000000000
C      -4.611700000000000      0.273100000000000      1.576900000000000
C      -3.820800000000000     -0.965500000000000     -0.585700000000000
C      -4.891300000000000      1.664000000000000      1.008500000000000
C      -5.238800000000000     -1.470400000000000     -0.863200000000000
C      -5.451900000000000      1.748300000000000     -0.411100000000000
C      -6.150300000000000     -0.452300000000000     -1.552600000000000
C      -6.577700000000000      0.762600000000000     -0.725800000000000
H       5.842700000000000     -1.182900000000000     -0.575600000000000
H       4.104300000000000      2.302800000000000     -1.343400000000000
H       4.094200000000000     -0.256200000000000     -2.653000000000000
H       5.633300000000000      0.566600000000000     -2.379100000000000
H       3.364000000000000     -1.985100000000000     -1.050500000000000
H       2.033400000000000      0.731400000000000     -1.641600000000000
H       2.068500000000000      1.709000000000000     -0.174000000000000
H       2.564600000000000     -0.154600000000000      1.237000000000000
H       7.078900000000000      1.031000000000000      0.839200000000000
H       6.879000000000000      1.572800000000000     -0.820000000000000
H       6.277700000000000      2.577800000000000      0.490100000000000
H       3.601800000000000      1.503100000000000      1.619900000000000
H       4.379600000000000     -0.080600000000000      2.035000000000000
H       5.194200000000000      1.382900000000000      2.185000000000000
H       3.095000000000000     -2.652500000000000      1.502200000000000
H       4.455500000000000     -3.230700000000000      0.552400000000000
H       4.717200000000000     -1.948200000000000      1.686400000000000
H       1.200100000000000     -1.886200000000000      0.647100000000000
H       0.360100000000000      0.194200000000000      1.577600000000000
H       0.102500000000000      0.764600000000000     -0.083600000000000
H      -1.329800000000000     -1.110500000000000     -0.562100000000000
H      -1.168100000000000     -1.738800000000000      1.091300000000000
H      -2.044400000000000      0.342000000000000      1.920500000000000
H      -3.501000000000000     -1.514500000000000      1.454500000000000
H      -5.548100000000000     -0.290700000000000      1.650000000000000
H      -4.299000000000000      0.410500000000000      2.622400000000000
H      -3.546300000000000     -0.167600000000000     -1.284200000000000
H      -3.178200000000000     -1.817500000000000     -0.843100000000000
H      -3.984700000000000      2.278800000000000      1.064900000000000
H      -5.614500000000000      2.146500000000000      1.679900000000000
H      -5.713500000000000     -1.865400000000000      0.041500000000000
H      -5.157900000000000     -2.325600000000000     -1.548300000000000
H      -4.646000000000000      1.676200000000000     -1.148000000000000
H      -5.849300000000000      2.765400000000000     -0.531000000000000
H      -7.063600000000000     -0.981000000000000     -1.855400000000000
H      -5.679300000000000     -0.112500000000000     -2.483700000000000
H      -7.323200000000000      1.300300000000000     -1.327200000000000
H      -7.105100000000000      0.447900000000000      0.181200000000000
