60

N      -0.104500000000000      1.384300000000000      0.319200000000000
N      -1.455700000000000     -1.142500000000000      0.355900000000000
C      -3.029100000000000      1.313800000000000     -0.325900000000000
C      -2.480000000000000      1.041300000000000      1.101300000000000
C      -1.948900000000000      0.722300000000000     -1.272600000000000
C      -1.120600000000000      1.764000000000000      1.310100000000000
C      -0.588400000000000      1.444000000000000     -1.066900000000000
C      -2.323100000000000     -0.485400000000000      1.343100000000000
C      -1.791500000000000     -0.804800000000000     -1.034100000000000
C      -3.256800000000000      2.823900000000000     -0.579600000000000
C      -4.414200000000000      0.659200000000000     -0.547700000000000
C       1.120200000000000      2.160200000000000      0.489000000000000
C       2.321500000000000      1.452800000000000     -0.135000000000000
C      -1.419200000000000     -2.587700000000000      0.558300000000000
C       3.597300000000000      2.285600000000000      0.050100000000000
C       2.494000000000000      0.049300000000000      0.461300000000000
C      -0.165200000000000     -3.181500000000000     -0.081000000000000
C       4.822500000000000      1.574100000000000     -0.519100000000000
C       3.721200000000000     -0.658500000000000     -0.108400000000000
C       4.985700000000000      0.176200000000000      0.069500000000000
C      -0.096200000000000     -4.693300000000000      0.138200000000000
C       1.131100000000000     -5.297300000000000     -0.525600000000000
H      -3.187400000000000      1.430400000000000      1.845400000000000
H      -2.257100000000000      0.872000000000000     -2.315900000000000
H      -1.274500000000000      2.849700000000000      1.309700000000000
H      -0.751400000000000      1.511900000000000      2.312700000000000
H       0.133200000000000      0.963200000000000     -1.737000000000000
H      -0.670000000000000      2.482900000000000     -1.407800000000000
H      -1.895900000000000     -0.629700000000000      2.344100000000000
H      -3.311400000000000     -0.960000000000000      1.366100000000000
H      -2.704900000000000     -1.321300000000000     -1.351800000000000
H      -1.000100000000000     -1.150600000000000     -1.708200000000000
H      -4.006100000000000      3.223500000000000      0.113800000000000
H      -3.623500000000000      2.993400000000000     -1.598900000000000
H      -2.360600000000000      3.436300000000000     -0.461600000000000
H      -4.771100000000000      0.846200000000000     -1.567300000000000
H      -5.154200000000000      1.076700000000000      0.145200000000000
H      -4.424400000000000     -0.423100000000000     -0.404300000000000
H       1.007800000000000      3.172300000000000      0.078400000000000
H       1.329100000000000      2.288500000000000      1.560100000000000
H       2.169500000000000      1.350100000000000     -1.217000000000000
H      -2.326200000000000     -3.071400000000000      0.173900000000000
H      -1.375300000000000     -2.811500000000000      1.632400000000000
H       3.761700000000000      2.486500000000000      1.116500000000000
H       3.483800000000000      3.258700000000000     -0.442500000000000
H       1.616800000000000     -0.569800000000000      0.252500000000000
H       2.589300000000000      0.113300000000000      1.552800000000000
H       5.721000000000000      2.167200000000000     -0.314200000000000
H       4.729100000000000      1.502500000000000     -1.609800000000000
H       3.563400000000000     -0.860000000000000     -1.175200000000000
H       3.847900000000000     -1.629300000000000      0.384000000000000
H       0.729500000000000     -2.716600000000000      0.349400000000000
H      -0.141900000000000     -2.994800000000000     -1.159600000000000
H       5.831900000000000     -0.329300000000000     -0.409100000000000
H       5.222900000000000      0.255600000000000      1.137600000000000
H      -0.994900000000000     -5.170500000000000     -0.269900000000000
H      -0.070500000000000     -4.913600000000000      1.211700000000000
H       2.050100000000000     -4.861400000000000     -0.121000000000000
H       1.162500000000000     -6.377600000000000     -0.352600000000000
H       1.116900000000000     -5.127000000000000     -1.606900000000000
