60

N      -1.083500000000000      0.325000000000000     -0.583800000000000
N       2.569700000000000     -0.052500000000000      0.055700000000000
C      -5.476200000000000     -0.709500000000000      0.673000000000000
C      -4.711800000000000     -0.826500000000000     -0.686000000000000
C      -6.124500000000000      0.558100000000000      0.030900000000000
C      -6.005900000000000     -0.223100000000000     -1.308400000000000
C      -3.518400000000000      0.133200000000000     -0.846400000000000
C      -5.236100000000000      1.807100000000000      0.032200000000000
C      -3.757200000000000      1.404000000000000     -0.008800000000000
C      -6.470100000000000     -1.845600000000000      0.894700000000000
C      -4.709200000000000     -0.548800000000000      1.965000000000000
C      -2.226600000000000     -0.561700000000000     -0.426000000000000
C       0.149200000000000     -0.334300000000000     -0.173100000000000
C       1.337900000000000      0.601400000000000     -0.372200000000000
C       4.986800000000000      0.106000000000000      0.313400000000000
C       3.716000000000000      0.824000000000000     -0.137200000000000
C       6.209900000000000      1.019500000000000      0.156900000000000
C       5.177200000000000     -1.200800000000000     -0.468500000000000
C       7.501000000000000      0.305600000000000      0.551000000000000
C       6.469900000000000     -1.911000000000000     -0.073200000000000
C       7.682300000000000     -0.997100000000000     -0.221800000000000
C       3.519700000000000      2.127000000000000      0.632500000000000
H      -4.498100000000000     -1.843200000000000     -1.034300000000000
H      -7.153700000000000      0.781100000000000      0.330600000000000
H      -6.815900000000000     -0.918900000000000     -1.545400000000000
H      -5.861900000000000      0.390300000000000     -2.205400000000000
H      -3.436900000000000      0.412300000000000     -1.906000000000000
H      -5.483300000000000      2.440600000000000     -0.828000000000000
H      -5.422700000000000      2.406800000000000      0.930100000000000
H      -3.309000000000000      1.343500000000000      0.984700000000000
H      -3.202700000000000      2.233600000000000     -0.470100000000000
H      -5.948700000000000     -2.751300000000000      1.228600000000000
H      -7.047900000000000     -2.140400000000000      0.015700000000000
H      -7.199100000000000     -1.580200000000000      1.669900000000000
H      -4.431100000000000      0.468700000000000      2.229000000000000
H      -5.329800000000000     -0.847600000000000      2.821700000000000
H      -3.833000000000000     -1.200100000000000      2.005800000000000
H      -2.089700000000000     -1.459600000000000     -1.042500000000000
H      -2.284700000000000     -0.900300000000000      0.611400000000000
H      -1.010000000000000      0.623700000000000     -1.555800000000000
H       0.303300000000000     -1.249100000000000     -0.759500000000000
H       0.082200000000000     -0.620600000000000      0.884200000000000
H       1.119000000000000      1.496500000000000      0.217500000000000
H       1.408300000000000      0.889200000000000     -1.428500000000000
H       4.896400000000000     -0.148900000000000      1.379900000000000
H       3.809800000000000      1.063400000000000     -1.205100000000000
H       6.140800000000000      1.901000000000000      0.800400000000000
H       6.290100000000000      1.373300000000000     -0.878700000000000
H       5.197300000000000     -0.993000000000000     -1.546100000000000
H       4.344400000000000     -1.891300000000000     -0.292800000000000
H       2.492100000000000     -0.317000000000000      1.037600000000000
H       7.486900000000000      0.092100000000000      1.627000000000000
H       8.357600000000000      0.964300000000000      0.367700000000000
H       6.395400000000000     -2.252700000000000      0.966600000000000
H       6.604300000000000     -2.804100000000000     -0.693800000000000
H       8.580399999999999     -1.514800000000000      0.133200000000000
H       7.841400000000000     -0.772000000000000     -1.283600000000000
H       4.367600000000000      2.807600000000000      0.521100000000000
H       3.371500000000000      1.948800000000000      1.703700000000000
H       2.678800000000000      2.720100000000000      0.261300000000000
