61

O       3.457200000000000     -3.331200000000000      0.179500000000000
O       4.347100000000000      0.425200000000000     -2.110700000000000
C       3.375900000000000     -1.954200000000000      0.569500000000000
C       2.341600000000000     -2.954600000000000      0.997000000000000
C       4.270900000000000     -0.864400000000000     -1.489800000000000
C       3.112000000000000     -1.013800000000000     -0.543500000000000
C       5.381800000000000      0.094900000000000     -1.175400000000000
C       1.023700000000000     -3.023300000000000      0.288300000000000
C       5.365900000000000      0.897600000000000      0.069100000000000
C       0.002000000000000     -2.009800000000000      0.808000000000000
C      -1.364400000000000     -2.132200000000000      0.127700000000000
C       6.356500000000000      2.036100000000000      0.104700000000000
C      -2.360100000000000     -1.118100000000000      0.697400000000000
C      -3.714400000000000     -1.215700000000000     -0.007800000000000
C      -4.723900000000000     -0.163000000000000      0.460100000000000
C       6.014000000000000      3.328900000000000      0.205100000000000
C      -6.081100000000000     -0.175000000000000     -0.250000000000000
C      -7.023400000000000      0.937800000000000      0.215800000000000
C       4.596400000000000      3.811100000000000      0.295200000000000
C      -8.392099999999999      0.821200000000000     -0.460400000000000
C       4.129700000000000      3.895200000000000      1.740100000000000
C      -9.366099999999999      1.929000000000000     -0.053200000000000
C     -10.749499999999999      1.778300000000000     -0.666800000000000
H       4.083100000000000     -1.592300000000000      1.301900000000000
H       2.318800000000000     -3.285900000000000      2.025100000000000
H       4.477100000000000     -1.737300000000000     -2.092400000000000
H       2.273900000000000     -1.324700000000000     -1.171800000000000
H       2.791100000000000     -0.053600000000000     -0.126200000000000
H       6.369800000000000     -0.137400000000000     -1.550000000000000
H       0.622000000000000     -4.030100000000000      0.464300000000000
H       1.120700000000000     -2.951200000000000     -0.800000000000000
H       4.361700000000000      1.243500000000000      0.317800000000000
H       5.646300000000000      0.230800000000000      0.894900000000000
H       0.389500000000000     -0.993900000000000      0.664800000000000
H      -0.117200000000000     -2.144000000000000      1.890700000000000
H      -1.248600000000000     -1.972500000000000     -0.951100000000000
H      -1.754400000000000     -3.147800000000000      0.265500000000000
H       7.411400000000000      1.778100000000000      0.055600000000000
H      -1.958400000000000     -0.104600000000000      0.577400000000000
H      -2.492600000000000     -1.288900000000000      1.772300000000000
H      -4.137900000000000     -2.214800000000000      0.152100000000000
H      -3.567500000000000     -1.104200000000000     -1.089300000000000
H      -4.888900000000000     -0.289000000000000      1.537700000000000
H      -4.274800000000000      0.830300000000000      0.331500000000000
H       6.800600000000000      4.077800000000000      0.242100000000000
H      -6.555600000000000     -1.150000000000000     -0.083600000000000
H      -5.920300000000000     -0.082200000000000     -1.331200000000000
H      -6.579500000000000      1.914200000000000     -0.011600000000000
H      -7.148300000000000      0.883600000000000      1.303900000000000
H       3.908400000000000      3.200200000000000     -0.298000000000000
H       4.550800000000000      4.811600000000000     -0.152700000000000
H      -8.263199999999999      0.842400000000000     -1.549700000000000
H      -8.833299999999999     -0.152400000000000     -0.212900000000000
H      -9.466200000000001      1.940300000000000      1.038800000000000
H      -8.951400000000000      2.901400000000000     -0.344000000000000
H       4.126600000000000      2.910400000000000      2.219000000000000
H       3.111000000000000      4.293600000000000      1.783800000000000
H       4.775100000000000      4.557400000000000      2.327300000000000
H     -11.400600000000001      2.596100000000000     -0.343000000000000
H     -11.210800000000001      0.833600000000000     -0.362100000000000
H     -10.695100000000000      1.797100000000000     -1.759800000000000
