61

O      -3.956000000000000      0.734400000000000     -1.855300000000000
N      -2.867700000000000      1.513100000000000      0.042600000000000
C      -1.998000000000000      2.447700000000000     -0.636500000000000
C      -0.700300000000000      1.766900000000000     -1.084800000000000
C      -1.709500000000000      3.669700000000000      0.241900000000000
C       0.225500000000000      1.443200000000000      0.087900000000000
C      -0.781900000000000      3.342900000000000      1.412200000000000
C       0.506900000000000      2.676700000000000      0.940300000000000
C      -3.782500000000000      0.728400000000000     -0.638200000000000
C      -4.587700000000000     -0.173400000000000      0.275600000000000
C      -3.717000000000000     -1.146800000000000      1.069800000000000
C      -2.844700000000000     -2.076100000000000      0.217200000000000
C      -2.051800000000000     -3.091800000000000      1.042600000000000
C      -1.174100000000000     -4.013900000000000      0.188600000000000
C      -0.073300000000000     -3.322600000000000     -0.622300000000000
C       0.978300000000000     -2.628800000000000      0.245300000000000
C       2.062000000000000     -1.973800000000000     -0.613800000000000
C       3.133500000000000     -1.311400000000000      0.254000000000000
C       4.199700000000000     -0.626400000000000     -0.603900000000000
C       5.287800000000000      0.006600000000000      0.266400000000000
C       6.364900000000000      0.732700000000000     -0.542500000000000
C       7.485900000000000      1.302700000000000      0.312900000000000
H      -2.527200000000000      2.793000000000000     -1.533500000000000
H      -0.918500000000000      0.845400000000000     -1.637900000000000
H      -0.170100000000000      2.433300000000000     -1.777200000000000
H      -1.239500000000000      4.447900000000000     -0.373200000000000
H      -2.645700000000000      4.091400000000000      0.627100000000000
H      -0.222700000000000      0.659400000000000      0.710100000000000
H       1.170600000000000      1.046500000000000     -0.296600000000000
H      -0.539100000000000      4.265200000000000      1.952500000000000
H      -1.293300000000000      2.687400000000000      2.126700000000000
H       1.116100000000000      2.394900000000000      1.806600000000000
H       1.095700000000000      3.395400000000000      0.356900000000000
H      -2.783600000000000      1.419500000000000      1.049700000000000
H      -5.306100000000000     -0.730800000000000     -0.336500000000000
H      -5.163900000000000      0.457500000000000      0.962100000000000
H      -2.756500000000000     -3.715000000000000      1.607200000000000
H      -1.439800000000000     -2.570400000000000      1.786800000000000
H      -3.480500000000000     -2.610500000000000     -0.499200000000000
H      -2.152000000000000     -1.461300000000000     -0.366900000000000
H      -4.380500000000000     -1.760800000000000      1.692000000000000
H      -3.072700000000000     -0.597900000000000      1.766800000000000
H      -1.817700000000000     -4.569600000000000     -0.504900000000000
H      -0.713200000000000     -4.761400000000000      0.846300000000000
H       0.424100000000000     -4.085300000000000     -1.234900000000000
H      -0.511300000000000     -2.607100000000000     -1.326700000000000
H       1.434400000000000     -3.360200000000000      0.923100000000000
H       0.507200000000000     -1.859400000000000      0.866500000000000
H       1.605600000000000     -1.227900000000000     -1.275400000000000
H       2.529500000000000     -2.730300000000000     -1.256000000000000
H       3.605800000000000     -2.068800000000000      0.891400000000000
H       2.668800000000000     -0.575100000000000      0.920600000000000
H       3.731400000000000      0.146400000000000     -1.225300000000000
H       4.654600000000000     -1.357200000000000     -1.283200000000000
H       4.828000000000000      0.716200000000000      0.965600000000000
H       5.761300000000000     -0.774500000000000      0.874200000000000
H       5.902800000000000      1.547100000000000     -1.113100000000000
H       6.798800000000000      0.039500000000000     -1.273100000000000
H       7.997100000000000      0.508500000000000      0.866100000000000
H       8.223900000000000      1.810200000000000     -0.315800000000000
H       7.095600000000000      2.027400000000000      1.034300000000000
