61

O       9.023500000000000      0.058100000000000      1.023100000000000
O       7.474600000000000     -1.501600000000000      1.698000000000000
C      -1.706400000000000     -0.431500000000000     -0.578800000000000
C      -2.958200000000000      0.327800000000000     -0.129400000000000
C      -0.400300000000000      0.231300000000000     -0.132900000000000
C      -4.297100000000000     -0.330400000000000     -0.478700000000000
C       0.813900000000000     -0.573900000000000     -0.603600000000000
C      -5.547600000000000      0.392400000000000      0.030800000000000
C       2.154900000000000      0.059400000000000     -0.217500000000000
C      -6.848900000000000     -0.352100000000000     -0.278300000000000
C       3.365900000000000     -0.738100000000000     -0.709200000000000
C      -8.062200000000001      0.411500000000000      0.258800000000000
C       4.706700000000000     -0.144500000000000     -0.262400000000000
C      -9.397200000000000     -0.274300000000000     -0.046200000000000
C       5.919100000000000     -0.896600000000000     -0.814200000000000
C     -10.608200000000000      0.476100000000000      0.512300000000000
C       7.202900000000000     -0.293700000000000     -0.349300000000000
C     -11.915800000000001     -0.211700000000000      0.117200000000000
C       9.157999999999999      0.936500000000000     -0.102700000000000
C       7.960200000000000      0.641300000000000     -0.917700000000000
C       7.875000000000000     -0.671100000000000      0.900400000000000
C     -13.122199999999999      0.510500000000000      0.695600000000000
C       9.209400000000000      2.374400000000000      0.384700000000000
H      -1.747200000000000     -1.452000000000000     -0.178000000000000
H      -1.717900000000000     -0.520200000000000     -1.672100000000000
H      -2.937700000000000      1.334900000000000     -0.564600000000000
H      -2.913300000000000      0.461200000000000      0.959000000000000
H      -0.382900000000000      0.316800000000000      0.960100000000000
H      -0.348000000000000      1.248300000000000     -0.539300000000000
H      -4.295200000000000     -1.350700000000000     -0.074400000000000
H      -4.365100000000000     -0.431100000000000     -1.569100000000000
H       0.774000000000000     -0.681900000000000     -1.694800000000000
H       0.761700000000000     -1.586100000000000     -0.183500000000000
H      -5.460700000000000      0.530100000000000      1.115700000000000
H      -5.584300000000000      1.394800000000000     -0.413300000000000
H       2.205000000000000      1.076700000000000     -0.624700000000000
H       2.203600000000000      0.152500000000000      0.874500000000000
H      -6.947200000000000     -0.484100000000000     -1.362400000000000
H      -6.817200000000000     -1.352800000000000      0.168900000000000
H       3.293700000000000     -1.769600000000000     -0.343300000000000
H       3.339700000000000     -0.787800000000000     -1.804700000000000
H      -8.074299999999999      1.421000000000000     -0.170800000000000
H      -7.961400000000000      0.531000000000000      1.344700000000000
H       4.743900000000000     -0.139700000000000      0.834600000000000
H       4.753900000000000      0.904900000000000     -0.581500000000000
H      -9.381500000000001     -1.291000000000000      0.365700000000000
H      -9.503000000000000     -0.375300000000000     -1.133600000000000
H       5.886200000000000     -0.882400000000000     -1.910800000000000
H       5.875700000000000     -1.951800000000000     -0.519300000000000
H     -10.607500000000000      1.506200000000000      0.135900000000000
H     -10.531499999999999      0.530700000000000      1.604800000000000
H     -11.913700000000000     -1.248400000000000      0.473600000000000
H     -12.004600000000000     -0.244100000000000     -0.975000000000000
H      10.075500000000000      0.676600000000000     -0.640600000000000
H       7.735000000000000      1.121900000000000     -1.859300000000000
H     -13.171600000000000      1.542700000000000      0.334600000000000
H     -13.080399999999999      0.530300000000000      1.789300000000000
H     -14.045600000000000      0.002600000000000      0.400200000000000
H       8.320200000000000      2.629800000000000      0.972800000000000
H      10.071400000000001      2.519500000000000      1.045000000000000
H       9.288100000000000      3.076700000000000     -0.451100000000000
