61

O      -7.089000000000000      2.316400000000000      0.379700000000000
O       8.693400000000000      1.143000000000000      0.085500000000000
C       1.348600000000000      0.061800000000000      0.534000000000000
C      -1.032000000000000      0.108600000000000      0.379500000000000
C       0.148200000000000     -0.864300000000000      0.359100000000000
C       1.010400000000000      1.231100000000000     -0.389000000000000
C      -0.513800000000000      1.366200000000000     -0.333200000000000
C      -4.681400000000000     -1.172900000000000     -0.196000000000000
C       2.673400000000000     -0.603800000000000      0.197200000000000
C      -5.832000000000000     -1.197500000000000      0.836800000000000
C      -5.105900000000000     -0.334400000000000     -1.423900000000000
C      -2.269400000000000     -0.456900000000000     -0.233200000000000
C      -3.428800000000000     -0.601400000000000      0.424200000000000
C      -6.332600000000000      0.198800000000000      1.207700000000000
C      -5.607100000000000      1.061300000000000     -1.051200000000000
C      -6.737900000000000      0.998400000000000     -0.027200000000000
C       3.842000000000000      0.371300000000000      0.339200000000000
C      -4.367200000000000     -2.609500000000000     -0.643500000000000
C       5.177800000000000     -0.311600000000000      0.031400000000000
C       6.340400000000000      0.678900000000000      0.139400000000000
C       7.744800000000000      0.080600000000000     -0.082400000000000
C       7.925400000000000     -0.481500000000000     -1.494000000000000
C       8.092599999999999     -0.982600000000000      0.960000000000000
H       1.373300000000000      0.420500000000000      1.572200000000000
H      -1.225500000000000      0.378200000000000      1.427800000000000
H       0.204700000000000     -1.405000000000000     -0.594600000000000
H       0.082500000000000     -1.604900000000000      1.163300000000000
H       1.502300000000000      2.158900000000000     -0.079400000000000
H       1.316800000000000      1.020200000000000     -1.421100000000000
H      -0.918300000000000      1.479900000000000     -1.345800000000000
H      -0.801100000000000      2.262800000000000      0.228600000000000
H       2.650100000000000     -1.000800000000000     -0.825500000000000
H       2.827000000000000     -1.460800000000000      0.864600000000000
H      -5.520500000000000     -1.722100000000000      1.749400000000000
H      -6.676800000000000     -1.768600000000000      0.428500000000000
H      -5.917500000000000     -0.857000000000000     -1.949100000000000
H      -4.293800000000000     -0.241600000000000     -2.155100000000000
H      -2.197100000000000     -0.754200000000000     -1.276300000000000
H      -3.466900000000000     -0.306200000000000      1.470200000000000
H      -7.191600000000000      0.114700000000000      1.885000000000000
H      -5.570500000000000      0.744700000000000      1.777600000000000
H      -4.782000000000000      1.673500000000000     -0.665700000000000
H      -5.958900000000000      1.582100000000000     -1.950300000000000
H      -7.625900000000000      0.547300000000000     -0.484600000000000
H       3.863400000000000      0.776500000000000      1.358200000000000
H       3.714400000000000      1.218200000000000     -0.344600000000000
H      -5.265400000000000     -3.099600000000000     -1.038100000000000
H      -4.004700000000000     -3.220000000000000      0.192300000000000
H      -3.612900000000000     -2.646000000000000     -1.437700000000000
H       5.318900000000000     -1.141600000000000      0.731800000000000
H       5.141500000000000     -0.736400000000000     -0.977900000000000
H       6.187300000000000      1.498500000000000     -0.576000000000000
H       6.316700000000000      1.159000000000000      1.127400000000000
H      -6.302400000000000      2.729400000000000      0.775100000000000
H       8.963900000000001     -0.789000000000000     -1.663600000000000
H       7.282100000000000     -1.347100000000000     -1.678100000000000
H       7.704100000000000      0.283800000000000     -2.246500000000000
H       7.974300000000000     -0.585800000000000      1.974800000000000
H       7.470900000000000     -1.877500000000000      0.861600000000000
H       9.141000000000000     -1.291100000000000      0.870900000000000
H       9.583900000000000      0.782400000000000     -0.065300000000000
