61

O       3.979300000000000     -1.245200000000000      1.062300000000000
O       5.187500000000000      2.531900000000000      0.509600000000000
C      -1.636000000000000     -0.742500000000000     -0.179300000000000
C      -0.081800000000000     -0.813600000000000      0.119200000000000
C       0.803800000000000      0.358200000000000     -0.447500000000000
C      -2.160500000000000      0.665500000000000      0.268000000000000
C       2.237100000000000      0.234400000000000      0.231600000000000
C       0.151600000000000      1.702700000000000     -0.017500000000000
C      -3.719700000000000      0.869300000000000      0.147700000000000
C      -1.340800000000000      1.817200000000000     -0.338500000000000
C       0.564600000000000     -2.187800000000000     -0.164000000000000
C      -2.360300000000000     -1.830200000000000      0.688700000000000
C       2.909000000000000     -1.171700000000000      0.099400000000000
C       1.931900000000000     -2.286500000000000      0.504000000000000
C      -4.481400000000000     -0.464800000000000      0.357500000000000
C      -1.937500000000000     -1.052800000000000     -1.662700000000000
C      -3.724500000000000     -1.428300000000000      1.255500000000000
C       0.919400000000000      0.360700000000000     -1.990700000000000
C       3.207000000000000      1.382500000000000     -0.115300000000000
C      -4.170900000000000      1.857800000000000      1.255600000000000
C      -4.170000000000000      1.480100000000000     -1.195600000000000
C       3.543900000000000     -1.481700000000000     -1.262600000000000
C       4.348500000000000      1.444700000000000      0.874500000000000
H      -0.024700000000000     -0.697500000000000      1.215200000000000
H      -1.942700000000000      0.710300000000000      1.348200000000000
H       2.045700000000000      0.354400000000000      1.311300000000000
H       0.653600000000000      2.547700000000000     -0.502500000000000
H       0.279200000000000      1.844400000000000      1.063900000000000
H      -1.690900000000000      2.775200000000000      0.063100000000000
H      -1.488300000000000      1.874700000000000     -1.420600000000000
H       0.661600000000000     -2.381000000000000     -1.235600000000000
H      -0.054900000000000     -2.999000000000000      0.232200000000000
H      -1.741300000000000     -2.114400000000000      1.549500000000000
H      -2.480000000000000     -2.750700000000000      0.101900000000000
H       1.792900000000000     -2.266500000000000      1.594300000000000
H       2.370000000000000     -3.271700000000000      0.297200000000000
H      -4.681200000000000     -0.958300000000000     -0.600200000000000
H      -5.472300000000000     -0.274800000000000      0.790000000000000
H      -1.696800000000000     -0.223400000000000     -2.327100000000000
H      -2.991500000000000     -1.284500000000000     -1.832300000000000
H      -1.386700000000000     -1.930800000000000     -2.013100000000000
H      -4.324400000000000     -2.330700000000000      1.423300000000000
H      -3.584600000000000     -0.971100000000000      2.243000000000000
H       0.956400000000000     -0.640600000000000     -2.420100000000000
H       1.808700000000000      0.897900000000000     -2.331600000000000
H       0.084500000000000      0.869800000000000     -2.476200000000000
H       2.702500000000000      2.352900000000000     -0.085600000000000
H       3.600900000000000      1.299800000000000     -1.133200000000000
H      -3.685600000000000      2.833500000000000      1.149800000000000
H      -3.935000000000000      1.474700000000000      2.254500000000000
H      -5.253100000000000      2.028900000000000      1.217300000000000
H      -3.785300000000000      2.496600000000000     -1.331000000000000
H      -5.263600000000000      1.545700000000000     -1.245200000000000
H      -3.844100000000000      0.882600000000000     -2.050400000000000
H       4.054700000000000     -2.452500000000000     -1.233300000000000
H       2.825100000000000     -1.525300000000000     -2.079300000000000
H       4.323100000000000     -0.757000000000000     -1.517900000000000
H       4.371000000000000     -2.134100000000000      1.014800000000000
H       3.997800000000000      1.598600000000000      1.899400000000000
H       5.013700000000000      0.587100000000000      0.829200000000000
H       5.904200000000000      2.575000000000000      1.165600000000000
