61

O      -7.086300000000000      0.714400000000000      1.734200000000000
O     -10.392899999999999     -0.401400000000000     -0.988800000000000
C      -7.176000000000000      0.284500000000000      0.379900000000000
C      -5.910900000000000      0.688900000000000     -0.360200000000000
C      -4.627900000000000      0.164200000000000      0.288700000000000
C      -3.319600000000000      0.586500000000000     -0.386900000000000
C      -2.070700000000000      0.051800000000000      0.316900000000000
C      -0.795500000000000      0.484200000000000     -0.412300000000000
C       0.454600000000000     -0.018900000000000      0.313000000000000
C      -8.447200000000000      0.845600000000000     -0.269200000000000
C       1.762500000000000      0.446000000000000     -0.333900000000000
C       3.012600000000000     -0.077300000000000      0.376800000000000
C       4.287300000000000      0.391400000000000     -0.328400000000000
C       5.538200000000000     -0.156400000000000      0.360900000000000
C      -7.384800000000000     -1.201000000000000      0.375000000000000
C       6.811500000000000      0.285000000000000     -0.364300000000000
C       8.059500000000000     -0.290800000000000      0.307700000000000
C      -9.267600000000000     -0.391400000000000     -0.512400000000000
C      -8.552700000000000     -1.611500000000000     -0.120700000000000
C       9.367699999999999      0.145500000000000     -0.359100000000000
C      10.648000000000000     -0.466800000000000      0.217200000000000
C      11.923299999999999      0.047900000000000     -0.450500000000000
C      13.166700000000001     -0.520300000000000      0.216400000000000
H      -5.949500000000000      0.349800000000000     -1.403600000000000
H      -5.846200000000000      1.784800000000000     -0.387100000000000
H      -4.647300000000000     -0.931500000000000      0.310500000000000
H      -4.588800000000000      0.494500000000000      1.334100000000000
H      -3.328800000000000      0.237300000000000     -1.426800000000000
H      -3.274500000000000      1.682000000000000     -0.421500000000000
H      -2.049500000000000      0.419000000000000      1.350000000000000
H      -2.114800000000000     -1.043000000000000      0.363000000000000
H      -0.804900000000000      0.098800000000000     -1.438800000000000
H      -0.763300000000000      1.578500000000000     -0.477100000000000
H       0.437100000000000     -1.115500000000000      0.342100000000000
H       0.433400000000000      0.325500000000000      1.354400000000000
H      -8.252700000000001      1.324500000000000     -1.234100000000000
H      -8.994800000000000      1.524200000000000      0.391600000000000
H       1.786100000000000      1.542800000000000     -0.347200000000000
H       1.777700000000000      0.116700000000000     -1.380400000000000
H       3.015700000000000      0.269500000000000      1.417200000000000
H       2.986300000000000     -1.173400000000000      0.400700000000000
H       4.321800000000000      1.487500000000000     -0.337600000000000
H       4.270600000000000      0.059500000000000     -1.373700000000000
H       5.567100000000000      0.190300000000000      1.401100000000000
H       5.492600000000000     -1.252000000000000      0.386100000000000
H      -6.660900000000000     -1.899500000000000      0.774900000000000
H       6.775600000000000     -0.043900000000000     -1.409900000000000
H       6.870500000000000      1.380000000000000     -0.371100000000000
H       8.080900000000000      0.012300000000000      1.361800000000000
H       8.002400000000000     -1.386200000000000      0.295000000000000
H      -8.925300000000000     -2.616600000000000     -0.208200000000000
H       9.317200000000000     -0.100700000000000     -1.427600000000000
H       9.440600000000000      1.238900000000000     -0.298200000000000
H      -7.015200000000000      1.684400000000000      1.734500000000000
H      10.599600000000001     -1.558300000000000      0.119500000000000
H      10.688499999999999     -0.247600000000000      1.291400000000000
H      11.956099999999999      1.142100000000000     -0.395400000000000
H      11.921700000000000     -0.224200000000000     -1.512200000000000
H      13.178800000000001     -1.613300000000000      0.156600000000000
H      14.067399999999999     -0.142900000000000     -0.277700000000000
H      13.212700000000000     -0.232900000000000      1.271700000000000
