61

O      -5.434600000000000      2.320300000000000      0.141000000000000
O      -5.404400000000000      0.119900000000000     -0.552400000000000
C      -0.407300000000000     -1.301800000000000     -0.118800000000000
C      -1.164700000000000      0.026200000000000      0.109200000000000
C       1.042000000000000     -0.758000000000000     -0.139900000000000
C      -0.542000000000000      0.976300000000000     -0.908100000000000
C      -2.684600000000000     -0.149400000000000      0.130300000000000
C       0.934000000000000      0.540700000000000     -0.973600000000000
C      -0.728500000000000     -2.237600000000000      1.058300000000000
C       2.117500000000000     -1.704100000000000     -0.654400000000000
C      -3.042700000000000     -1.142100000000000      1.258300000000000
C      -2.242900000000000     -2.452100000000000      1.210800000000000
C      -0.758100000000000     -2.006100000000000     -1.453400000000000
C      -3.408900000000000      1.179900000000000      0.345100000000000
C       3.399900000000000     -0.968300000000000     -1.099900000000000
C       2.468100000000000     -2.732600000000000      0.427800000000000
C       4.026100000000000     -0.115600000000000      0.008200000000000
C      -4.851700000000000      1.105100000000000     -0.083200000000000
C       5.263900000000000      0.668100000000000     -0.448300000000000
C       5.982700000000000      1.493100000000000      0.636100000000000
C       5.018400000000000      2.531300000000000      1.217500000000000
C       7.235000000000000      2.191300000000000      0.105600000000000
C      -6.817200000000000      2.415600000000000     -0.216400000000000
H      -0.883900000000000      0.418700000000000      1.101600000000000
H       1.301500000000000     -0.449000000000000      0.884100000000000
H      -0.627600000000000      2.023200000000000     -0.599600000000000
H      -1.015700000000000      0.879000000000000     -1.891400000000000
H      -3.008100000000000     -0.571500000000000     -0.827700000000000
H       1.192500000000000      0.389500000000000     -2.027000000000000
H       1.572300000000000      1.338100000000000     -0.582700000000000
H      -0.334700000000000     -1.820500000000000      1.993700000000000
H      -0.268200000000000     -3.220000000000000      0.929400000000000
H       1.779800000000000     -2.249600000000000     -1.541300000000000
H      -4.111800000000000     -1.381600000000000      1.232300000000000
H      -2.856500000000000     -0.668400000000000      2.231500000000000
H      -2.434900000000000     -3.024500000000000      2.126200000000000
H      -2.614700000000000     -3.068200000000000      0.383800000000000
H      -0.450000000000000     -1.426000000000000     -2.328900000000000
H      -1.829400000000000     -2.194600000000000     -1.561800000000000
H      -0.271900000000000     -2.985900000000000     -1.519100000000000
H      -2.951400000000000      1.965000000000000     -0.266500000000000
H      -3.362300000000000      1.487200000000000      1.395900000000000
H       4.138600000000000     -1.709600000000000     -1.433000000000000
H       3.205900000000000     -0.345900000000000     -1.980000000000000
H       2.567300000000000     -2.282200000000000      1.420700000000000
H       1.716300000000000     -3.521900000000000      0.480900000000000
H       3.413000000000000     -3.237600000000000      0.196200000000000
H       4.326400000000000     -0.763500000000000      0.840200000000000
H       3.297700000000000      0.586600000000000      0.413300000000000
H       4.974000000000000      1.332500000000000     -1.273100000000000
H       5.984700000000000     -0.044100000000000     -0.871100000000000
H       6.289700000000000      0.817200000000000      1.444100000000000
H       4.584900000000000      3.159700000000000      0.432100000000000
H       4.202400000000000      2.058100000000000      1.771800000000000
H       5.539100000000000      3.188500000000000      1.922900000000000
H       6.986600000000000      2.896900000000000     -0.694400000000000
H       7.943100000000000      1.459400000000000     -0.296700000000000
H       7.742000000000000      2.745000000000000      0.902800000000000
H      -7.158200000000000      3.429000000000000      0.011600000000000
H      -7.409400000000000      1.705700000000000      0.368900000000000
H      -6.944600000000000      2.234900000000000     -1.288000000000000
