61

O      -6.210300000000000     -1.879000000000000     -0.005500000000000
N      -7.568700000000000     -0.010400000000000      0.021700000000000
C      -8.829300000000000     -0.737900000000000      0.037500000000000
C      -7.795900000000000      1.431300000000000      0.033900000000000
C      -9.871499999999999      0.314200000000000      0.383600000000000
C      -9.288100000000000      1.582300000000000     -0.226700000000000
C       1.205400000000000     -0.497000000000000     -0.089300000000000
C      -0.068800000000000      0.348900000000000     -0.070600000000000
C      -1.320500000000000     -0.529800000000000     -0.099200000000000
C       2.456700000000000      0.380400000000000     -0.027100000000000
C      -2.595000000000000      0.315300000000000     -0.046600000000000
C       3.731200000000000     -0.463600000000000     -0.079800000000000
C      -3.846800000000000     -0.567500000000000     -0.041900000000000
C      -5.136500000000000      0.246900000000000     -0.020400000000000
C       4.982200000000000      0.411300000000000      0.015900000000000
C      -6.344900000000000     -0.654400000000000      0.001100000000000
C       6.256000000000000     -0.435400000000000     -0.003300000000000
C       7.507800000000000      0.441400000000000      0.059000000000000
C       8.782800000000000     -0.403700000000000      0.006300000000000
C      10.033200000000001      0.478100000000000      0.034800000000000
C      11.338300000000000     -0.320100000000000      0.008500000000000
C      12.582700000000001      0.548600000000000      0.108200000000000
H      -8.795299999999999     -1.562800000000000      0.755200000000000
H      -8.989200000000000     -1.148100000000000     -0.965800000000000
H      -7.187800000000000      1.937200000000000     -0.720400000000000
H      -7.521900000000000      1.805000000000000      1.026400000000000
H      -9.945000000000000      0.427100000000000      1.472000000000000
H     -10.863799999999999      0.068900000000000     -0.004500000000000
H      -9.481299999999999      1.595900000000000     -1.306200000000000
H      -9.701300000000000      2.496600000000000      0.207700000000000
H       1.201300000000000     -1.189100000000000      0.761500000000000
H       1.226900000000000     -1.105900000000000     -1.001400000000000
H      -0.074600000000000      1.026400000000000     -0.933100000000000
H      -0.080200000000000      0.973300000000000      0.831200000000000
H       2.452200000000000      1.089000000000000     -0.864200000000000
H       2.443600000000000      0.971400000000000      0.896800000000000
H      -1.320600000000000     -1.141100000000000     -1.009800000000000
H      -1.303500000000000     -1.219500000000000      0.753500000000000
H      -2.587300000000000      0.941600000000000      0.853600000000000
H      -2.624500000000000      0.989900000000000     -0.910800000000000
H       3.726100000000000     -1.186400000000000      0.745100000000000
H       3.754100000000000     -1.038600000000000     -1.013500000000000
H      -3.813800000000000     -1.231400000000000      0.831600000000000
H      -3.834900000000000     -1.214300000000000     -0.928700000000000
H       4.997500000000000      1.120100000000000     -0.820900000000000
H       4.949800000000000      1.001900000000000      0.939500000000000
H      -5.156700000000000      0.889900000000000      0.866500000000000
H      -5.180000000000000      0.879800000000000     -0.913300000000000
H       6.250300000000000     -1.129900000000000      0.845500000000000
H       6.278500000000000     -1.041700000000000     -0.917000000000000
H       7.502300000000000      1.147800000000000     -0.780200000000000
H       7.496400000000000      1.034700000000000      0.981300000000000
H       8.787100000000001     -1.012000000000000     -0.906200000000000
H       8.801100000000000     -1.095400000000000      0.857100000000000
H      10.015200000000000      1.164300000000000     -0.821000000000000
H      10.013500000000001      1.099600000000000      0.938900000000000
H      11.386200000000001     -0.906700000000000     -0.916600000000000
H      11.343000000000000     -1.036000000000000      0.839000000000000
H      12.632099999999999      1.255800000000000     -0.725700000000000
H      13.483400000000000     -0.072500000000000      0.083000000000000
H      12.587100000000000      1.118400000000000      1.042800000000000
