61

O      -5.316000000000000      0.891600000000000     -0.859400000000000
O      -5.454800000000000     -1.399100000000000     -1.112400000000000
C       4.275200000000000     -0.352200000000000      0.096900000000000
C       3.200200000000000      1.347900000000000     -1.380900000000000
C       3.999300000000000     -1.778700000000000     -0.278300000000000
C       2.775800000000000      2.582900000000000     -0.641500000000000
C       4.469600000000000      0.652800000000000     -0.976900000000000
C       5.325100000000000     -1.401900000000000      0.314800000000000
C       3.281700000000000      2.688400000000000     -2.050300000000000
C       3.032400000000000     -2.575100000000000      0.542600000000000
C       1.333800000000000      2.804500000000000     -0.372700000000000
C       1.597100000000000     -2.421500000000000      0.036200000000000
C       0.900900000000000      2.234300000000000      0.983900000000000
C       0.625000000000000     -3.274000000000000      0.853900000000000
C      -0.576100000000000      2.505700000000000      1.271300000000000
C      -0.817300000000000     -3.212400000000000      0.342600000000000
C      -1.002100000000000      1.903600000000000      2.610100000000000
C      -1.400300000000000     -1.797100000000000      0.334000000000000
C      -2.478500000000000      2.143000000000000      2.883800000000000
C      -2.837400000000000     -1.794700000000000     -0.197900000000000
C      -3.438400000000000     -0.393000000000000     -0.248200000000000
C      -4.846800000000000     -0.386800000000000     -0.789400000000000
C      -6.648500000000000      1.031800000000000     -1.362200000000000
H       3.804800000000000      0.063300000000000      0.980100000000000
H       2.443800000000000      0.659500000000000     -1.738500000000000
H       3.987400000000000     -2.058100000000000     -1.324900000000000
H       3.413800000000000      2.977800000000000      0.139900000000000
H       5.209200000000000      1.386500000000000     -0.631400000000000
H       4.900500000000000      0.188700000000000     -1.873200000000000
H       5.539600000000000     -1.694400000000000      1.335800000000000
H       6.190000000000000     -1.415200000000000     -0.337800000000000
H       2.573000000000000      2.898400000000000     -2.842700000000000
H       4.257200000000000      3.134600000000000     -2.202500000000000
H       3.326400000000000     -3.630600000000000      0.494000000000000
H       3.081700000000000     -2.280900000000000      1.598600000000000
H       0.712600000000000      2.365800000000000     -1.163900000000000
H       1.139400000000000      3.884000000000000     -0.385600000000000
H       1.323600000000000     -1.362300000000000      0.093100000000000
H       1.543800000000000     -2.709100000000000     -1.020900000000000
H       1.089100000000000      1.153400000000000      0.998900000000000
H       1.517300000000000      2.671100000000000      1.779500000000000
H       0.954000000000000     -4.320300000000000      0.838000000000000
H       0.649300000000000     -2.950600000000000      1.901700000000000
H      -1.188400000000000      2.080400000000000      0.466900000000000
H      -0.757900000000000      3.587200000000000      1.278700000000000
H      -0.854100000000000     -3.628700000000000     -0.671700000000000
H      -1.439900000000000     -3.859300000000000      0.972500000000000
H      -0.407500000000000      2.336300000000000      3.422900000000000
H      -0.810500000000000      0.824400000000000      2.607100000000000
H      -1.379700000000000     -1.382700000000000      1.348600000000000
H      -0.800100000000000     -1.137800000000000     -0.301700000000000
H      -2.683200000000000      3.213500000000000      2.988300000000000
H      -2.776800000000000      1.649700000000000      3.814100000000000
H      -3.105100000000000      1.758700000000000      2.076300000000000
H      -2.854200000000000     -2.234000000000000     -1.203500000000000
H      -3.461300000000000     -2.439300000000000      0.434200000000000
H      -3.467800000000000      0.020200000000000      0.763200000000000
H      -2.822500000000000      0.252200000000000     -0.884200000000000
H      -6.900000000000000      2.095700000000000     -1.366800000000000
H      -7.355400000000000      0.506600000000000     -0.712800000000000
H      -6.708600000000000      0.652200000000000     -2.386600000000000
