61

O      -1.382000000000000     -0.724700000000000      0.524000000000000
O      -0.735600000000000     -1.353600000000000     -1.602800000000000
C       3.809700000000000     -0.607700000000000     -0.231700000000000
C       0.901800000000000     -1.040700000000000      0.133300000000000
C       3.221900000000000     -2.017300000000000     -0.082300000000000
C       2.927900000000000      0.429900000000000      0.476100000000000
C      -5.470800000000000      0.400800000000000      0.435900000000000
C       1.775800000000000     -2.079300000000000     -0.569500000000000
C       1.481500000000000      0.366800000000000     -0.009900000000000
C      -2.744200000000000     -0.708700000000000      0.111200000000000
C      -4.587300000000000      0.783000000000000     -0.759800000000000
C      -5.103900000000000     -0.992400000000000      0.965800000000000
C      -3.103800000000000      0.677600000000000     -0.419200000000000
C      -3.618900000000000     -1.092600000000000      1.301700000000000
C       5.238100000000000     -0.559200000000000      0.307700000000000
C      -6.948900000000000      0.460700000000000      0.055100000000000
C      -0.481400000000000     -1.066400000000000     -0.440900000000000
C       5.989100000000000      0.657800000000000     -0.224400000000000
C      -7.438000000000000      1.902100000000000     -0.035800000000000
C       7.408100000000000      0.719900000000000      0.343100000000000
C       8.177199999999999      1.918300000000000     -0.212300000000000
C      -8.915500000000000      1.961000000000000     -0.389100000000000
C       9.599200000000000      1.964600000000000      0.323800000000000
H       3.827400000000000     -0.372700000000000     -1.305000000000000
H       0.845100000000000     -1.312600000000000      1.195900000000000
H       3.822900000000000     -2.737200000000000     -0.650700000000000
H       3.263100000000000     -2.329200000000000      0.969200000000000
H       2.948700000000000      0.262400000000000      1.560700000000000
H       3.302500000000000      1.444300000000000      0.304700000000000
H      -5.283500000000000      1.117900000000000      1.247300000000000
H       1.763600000000000     -1.921800000000000     -1.656100000000000
H       1.374300000000000     -3.085900000000000     -0.399000000000000
H       1.435500000000000      0.689000000000000     -1.058700000000000
H       0.874800000000000      1.083100000000000      0.557900000000000
H      -2.918800000000000     -1.456100000000000     -0.675000000000000
H      -4.793100000000000      1.808200000000000     -1.084900000000000
H      -4.806800000000000      0.128500000000000     -1.613000000000000
H      -5.358500000000000     -1.754600000000000      0.218300000000000
H      -5.691000000000000     -1.219400000000000      1.863800000000000
H      -2.836400000000000      1.438900000000000      0.325200000000000
H      -2.502400000000000      0.908300000000000     -1.306600000000000
H      -3.375600000000000     -2.111500000000000      1.626600000000000
H      -3.385400000000000     -0.445500000000000      2.157300000000000
H       5.235100000000000     -0.557500000000000      1.404700000000000
H       5.780300000000000     -1.461300000000000     -0.003600000000000
H      -7.125900000000000     -0.063800000000000     -0.892000000000000
H      -7.545000000000000     -0.057700000000000      0.817100000000000
H       6.033800000000000      0.614200000000000     -1.319500000000000
H       5.467300000000000      1.583200000000000      0.040600000000000
H      -7.279500000000000      2.414700000000000      0.920200000000000
H      -6.881000000000000      2.456500000000000     -0.797800000000000
H       7.943200000000000     -0.204800000000000      0.094900000000000
H       7.365700000000000      0.784900000000000      1.437200000000000
H       7.660900000000000      2.848000000000000      0.053800000000000
H       8.208800000000000      1.866500000000000     -1.306800000000000
H      -9.521300000000000      1.453400000000000      0.368200000000000
H      -9.249800000000000      3.001600000000000     -0.448700000000000
H      -9.106999999999999      1.487100000000000     -1.357300000000000
H       9.604300000000000      2.047500000000000      1.415400000000000
H      10.130400000000000      2.829800000000000     -0.085000000000000
H      10.153400000000000      1.062800000000000      0.044800000000000
