62

O       3.471800000000000     -0.033100000000000     -0.176600000000000
N       4.072700000000000      2.147500000000000     -0.531000000000000
C      -0.465700000000000      2.903300000000000      0.978100000000000
C       0.726300000000000      1.945200000000000      0.913600000000000
C      -1.677100000000000      2.322200000000000      0.245200000000000
C       1.961400000000000      2.462200000000000      1.654100000000000
C      -2.918300000000000      3.221400000000000      0.292100000000000
C      -1.788300000000000     -3.007600000000000     -0.206800000000000
C      -2.815100000000000     -1.923300000000000      0.130000000000000
C       3.123900000000000      1.474900000000000      1.646500000000000
C      -0.487300000000000     -2.800400000000000      0.571500000000000
C      -4.131500000000000     -2.153000000000000     -0.619200000000000
C      -4.151100000000000      2.699000000000000     -0.454900000000000
C       0.568900000000000     -3.873200000000000      0.287400000000000
C      -5.179200000000000     -1.070900000000000     -0.336800000000000
C       3.588500000000000      1.242100000000000      0.256500000000000
C       3.760200000000000      0.035300000000000     -1.568500000000000
C       4.440900000000000      1.383600000000000     -1.731700000000000
C      -4.605800000000000      1.348300000000000      0.017100000000000
C       1.899100000000000     -3.706100000000000      1.026000000000000
C      -4.743400000000000      0.289900000000000     -0.795300000000000
C       2.461900000000000     -0.077300000000000     -2.354600000000000
C       2.887100000000000     -4.830100000000000      0.757200000000000
H      -0.190500000000000      3.865800000000000      0.531000000000000
H      -0.727700000000000      3.094400000000000      2.025500000000000
H       0.434100000000000      0.976400000000000      1.338100000000000
H       0.972100000000000      1.768700000000000     -0.138800000000000
H      -1.917500000000000      1.349300000000000      0.689600000000000
H      -1.412200000000000      2.136000000000000     -0.803000000000000
H       1.692400000000000      2.672900000000000      2.696500000000000
H       2.274100000000000      3.416100000000000      1.211500000000000
H      -3.187300000000000      3.391600000000000      1.342900000000000
H      -2.659500000000000      4.204600000000000     -0.120700000000000
H      -2.202800000000000     -3.994300000000000      0.032500000000000
H      -1.578000000000000     -2.996600000000000     -1.283000000000000
H      -3.006100000000000     -1.913900000000000      1.209800000000000
H      -2.392100000000000     -0.947900000000000     -0.134100000000000
H       2.826500000000000      0.526800000000000      2.107700000000000
H       3.962500000000000      1.875800000000000      2.225900000000000
H      -0.703400000000000     -2.791400000000000      1.646800000000000
H      -0.069700000000000     -1.816200000000000      0.324600000000000
H      -4.547200000000000     -3.126300000000000     -0.330500000000000
H      -3.936400000000000     -2.200600000000000     -1.698200000000000
H      -4.974800000000000      3.409300000000000     -0.315400000000000
H      -3.931900000000000      2.680100000000000     -1.529700000000000
H       0.146400000000000     -4.853500000000000      0.542200000000000
H       0.768400000000000     -3.894100000000000     -0.791500000000000
H      -6.105800000000000     -1.329700000000000     -0.863000000000000
H      -5.417300000000000     -1.066000000000000      0.733900000000000
H       4.433700000000000     -0.783800000000000     -1.842200000000000
H       4.136800000000000      1.905300000000000     -2.644600000000000
H       5.530700000000000      1.268900000000000     -1.754700000000000
H      -4.830200000000000      1.245200000000000      1.075600000000000
H       1.708900000000000     -3.653000000000000      2.104500000000000
H       2.355000000000000     -2.751900000000000      0.736800000000000
H      -4.526800000000000      0.399500000000000     -1.855100000000000
H       1.766700000000000      0.729800000000000     -2.102700000000000
H       2.651700000000000     -0.046700000000000     -3.431800000000000
H       1.953100000000000     -1.017200000000000     -2.114500000000000
H       3.817300000000000     -4.658500000000000      1.307600000000000
H       3.127600000000000     -4.890900000000000     -0.308800000000000
H       2.476900000000000     -5.794600000000000      1.072600000000000
