62

O       5.877000000000000     -0.419500000000000      0.622500000000000
N       5.207000000000000      1.527500000000000     -0.380600000000000
C       5.923400000000000      0.731100000000000     -1.397000000000000
C       2.363600000000000      0.020000000000000      1.202800000000000
C       1.274900000000000     -0.993900000000000      1.558500000000000
C       3.467900000000000      0.040800000000000      2.264400000000000
C       0.184400000000000     -1.043700000000000      0.486500000000000
C       4.556500000000000      1.063500000000000      1.955100000000000
C       6.607600000000000     -0.371500000000000     -0.596600000000000
C      -0.882400000000000     -2.081600000000000      0.838200000000000
C       5.218700000000000      0.760000000000000      0.662200000000000
C      -1.967700000000000     -2.164800000000000     -0.241200000000000
C       4.892100000000000      0.167500000000000     -2.379000000000000
C       6.926300000000000      1.619700000000000     -2.125300000000000
C      -3.070900000000000     -3.173000000000000      0.100600000000000
C      -5.700100000000000     -0.077900000000000     -0.699000000000000
C      -6.105000000000000      1.017200000000000      0.294200000000000
C      -5.532600000000000     -1.461400000000000     -0.059900000000000
C      -4.096700000000000     -3.296500000000000     -0.988200000000000
C      -6.280200000000000      2.364100000000000     -0.412500000000000
C      -5.195000000000000     -2.530300000000000     -1.056500000000000
C      -6.712000000000000      3.489600000000000      0.530100000000000
C      -6.957000000000000      4.813000000000000     -0.179500000000000
H       2.782400000000000     -0.239800000000000      0.224500000000000
H       1.921000000000000      1.019300000000000      1.111900000000000
H       0.828700000000000     -0.730800000000000      2.525200000000000
H       1.724100000000000     -1.988400000000000      1.669800000000000
H       3.907900000000000     -0.960400000000000      2.351200000000000
H       3.030200000000000      0.279900000000000      3.241200000000000
H      -0.279900000000000     -0.055400000000000      0.385500000000000
H       0.632800000000000     -1.292400000000000     -0.483100000000000
H       5.316300000000000      1.057500000000000      2.744200000000000
H       4.131700000000000      2.072600000000000      1.915000000000000
H       6.568700000000000     -1.348000000000000     -1.089700000000000
H       7.652600000000000     -0.144500000000000     -0.357300000000000
H      -0.415200000000000     -3.066500000000000      0.959000000000000
H      -1.343300000000000     -1.822500000000000      1.799200000000000
H      -2.410700000000000     -1.170600000000000     -0.380800000000000
H      -1.503900000000000     -2.440300000000000     -1.197100000000000
H       4.335900000000000      0.973800000000000     -2.870700000000000
H       4.158800000000000     -0.468000000000000     -1.870200000000000
H       5.375800000000000     -0.434300000000000     -3.156000000000000
H       6.419800000000000      2.437700000000000     -2.650100000000000
H       7.501300000000000      1.047000000000000     -2.860800000000000
H       7.632800000000000      2.077400000000000     -1.423600000000000
H      -2.615000000000000     -4.163400000000000      0.232100000000000
H      -3.520400000000000     -2.945900000000000      1.072700000000000
H      -4.758400000000000      0.209100000000000     -1.185000000000000
H      -6.456300000000000     -0.137200000000000     -1.492600000000000
H      -5.341100000000000      1.106900000000000      1.075500000000000
H      -7.043000000000000      0.735400000000000      0.787100000000000
H      -4.802300000000000     -1.371400000000000      0.747600000000000
H      -6.478500000000000     -1.744200000000000      0.419400000000000
H      -5.338500000000000      2.645400000000000     -0.900000000000000
H      -7.028900000000000      2.258300000000000     -1.207500000000000
H      -3.923400000000000     -4.039600000000000     -1.761700000000000
H      -5.889700000000000     -2.687000000000000     -1.877600000000000
H      -5.943700000000000      3.633900000000000      1.299000000000000
H      -7.631200000000000      3.195200000000000      1.050500000000000
H      -7.749800000000000      4.713900000000000     -0.927600000000000
H      -6.049200000000000      5.158300000000000     -0.684300000000000
H      -7.260400000000000      5.579900000000000      0.539900000000000
