62

O      -3.294100000000000      1.709600000000000     -1.208100000000000
N      -4.977000000000000      0.073700000000000      0.171000000000000
C      -0.848700000000000     -0.566900000000000     -0.232400000000000
C      -1.270500000000000      0.932400000000000     -0.151800000000000
C       0.691200000000000     -0.430500000000000     -0.185400000000000
C      -0.371900000000000      1.561200000000000     -1.223000000000000
C       0.965300000000000      0.794100000000000     -1.097600000000000
C      -1.494700000000000     -1.349700000000000      0.923400000000000
C       1.502800000000000     -1.656600000000000     -0.584000000000000
C      -2.781100000000000      0.986400000000000     -0.356500000000000
C      -1.266900000000000     -1.247600000000000     -1.577000000000000
C      -3.032700000000000     -1.271100000000000      0.848400000000000
C      -3.596000000000000      0.148400000000000      0.642800000000000
C      -0.980900000000000      1.667000000000000      1.183700000000000
C       2.950200000000000     -1.308500000000000     -0.992200000000000
C       1.524700000000000     -2.663600000000000      0.571800000000000
C       3.729700000000000     -0.572600000000000      0.102300000000000
C      -5.650600000000000     -1.093000000000000      0.741000000000000
C      -5.701500000000000      1.298200000000000      0.511300000000000
C       5.146800000000000     -0.166500000000000     -0.323400000000000
C       6.009300000000000      0.517300000000000      0.754400000000000
C       7.421500000000000      0.832300000000000      0.260500000000000
C       5.325000000000000      1.805700000000000      1.221100000000000
H       0.981300000000000     -0.147400000000000      0.835300000000000
H      -0.226300000000000      2.638100000000000     -1.082100000000000
H      -0.791900000000000      1.434500000000000     -2.227900000000000
H       1.283200000000000      0.518300000000000     -2.107800000000000
H       1.728500000000000      1.452400000000000     -0.672000000000000
H      -1.149300000000000     -0.981800000000000      1.895400000000000
H      -1.227500000000000     -2.408200000000000      0.889600000000000
H       1.075200000000000     -2.159300000000000     -1.456900000000000
H      -1.128000000000000     -2.333800000000000     -1.526000000000000
H      -2.319400000000000     -1.079100000000000     -1.824800000000000
H      -0.690000000000000     -0.887300000000000     -2.434700000000000
H      -3.317000000000000     -1.928600000000000      0.017300000000000
H      -3.421900000000000     -1.723000000000000      1.769200000000000
H      -3.554000000000000      0.660600000000000      1.612900000000000
H       0.089000000000000      1.774900000000000      1.387700000000000
H      -1.426900000000000      1.175800000000000      2.052200000000000
H      -1.399100000000000      2.681200000000000      1.151500000000000
H       3.483200000000000     -2.237300000000000     -1.236600000000000
H       2.967900000000000     -0.723200000000000     -1.917400000000000
H       1.674400000000000     -2.186300000000000      1.545500000000000
H       0.601300000000000     -3.243700000000000      0.609300000000000
H       2.327600000000000     -3.397500000000000      0.436200000000000
H       3.813700000000000     -1.216200000000000      0.985900000000000
H       3.192400000000000      0.320700000000000      0.421400000000000
H      -5.587200000000000     -1.132400000000000      1.835100000000000
H      -5.329300000000000     -2.043400000000000      0.304900000000000
H      -6.720600000000000     -1.049100000000000      0.496900000000000
H      -6.713100000000000      1.266000000000000      0.090200000000000
H      -5.794400000000000      1.431500000000000      1.596000000000000
H      -5.235500000000000      2.199300000000000      0.103200000000000
H       5.075000000000000      0.492600000000000     -1.198800000000000
H       5.674400000000000     -1.067200000000000     -0.663800000000000
H       6.095400000000000     -0.158300000000000      1.614600000000000
H       7.399300000000000      1.522100000000000     -0.590000000000000
H       8.021000000000001      1.289700000000000      1.054500000000000
H       7.930900000000000     -0.082600000000000     -0.059300000000000
H       5.104100000000000      2.470000000000000      0.378700000000000
H       5.968400000000000      2.352800000000000      1.919300000000000
H       4.391000000000000      1.597100000000000      1.751300000000000
