62

O      -3.074900000000000      2.117600000000000     -2.183600000000000
N      -2.039400000000000      2.120200000000000     -0.100000000000000
C      -1.239500000000000      3.803400000000000      2.123200000000000
C      -1.598000000000000      4.394100000000000      0.762200000000000
C      -1.973600000000000      2.484400000000000      2.347800000000000
C      -1.345400000000000      3.386300000000000     -0.354000000000000
C      -1.735600000000000      1.502900000000000      1.200400000000000
C       0.601800000000000     -2.740400000000000      1.734800000000000
C       1.715800000000000     -2.612100000000000      0.693000000000000
C      -0.253800000000000     -4.000300000000000      1.567600000000000
C       2.548000000000000     -1.349000000000000      0.929400000000000
C      -1.053900000000000     -4.101200000000000      0.265000000000000
C       3.695700000000000     -1.179700000000000     -0.070500000000000
C      -2.091100000000000     -2.988800000000000      0.094600000000000
C       4.510100000000000      0.098100000000000      0.152400000000000
C      -2.913500000000000     -3.190900000000000     -1.182700000000000
C       5.686100000000000      0.182500000000000     -0.824300000000000
C      -2.869900000000000      1.594100000000000     -1.087000000000000
C      -3.944800000000000     -2.081000000000000     -1.410400000000000
C       6.555100000000000      1.425500000000000     -0.619500000000000
C      -3.551000000000000      0.314800000000000     -0.804300000000000
C      -3.312500000000000     -0.731600000000000     -1.603200000000000
C       7.684500000000000      1.551000000000000     -1.630600000000000
H      -1.497100000000000      4.513100000000000      2.917000000000000
H      -0.156900000000000      3.635600000000000      2.178100000000000
H      -1.012200000000000      5.302500000000000      0.584400000000000
H      -2.656300000000000      4.683400000000000      0.761200000000000
H      -3.049200000000000      2.683500000000000      2.434400000000000
H      -1.650900000000000      2.034800000000000      3.293300000000000
H      -0.275100000000000      3.159300000000000     -0.429100000000000
H      -1.653800000000000      3.816100000000000     -1.312300000000000
H      -2.323600000000000      0.596600000000000      1.362200000000000
H      -0.681200000000000      1.202400000000000      1.172100000000000
H       1.055100000000000     -2.769600000000000      2.733900000000000
H      -0.034200000000000     -1.848200000000000      1.714900000000000
H       2.364500000000000     -3.494900000000000      0.735600000000000
H       1.288400000000000     -2.569100000000000     -0.314700000000000
H       0.396200000000000     -4.880900000000000      1.644100000000000
H      -0.950500000000000     -4.059000000000000      2.413200000000000
H       1.893100000000000     -0.470300000000000      0.874100000000000
H       2.961500000000000     -1.372000000000000      1.945300000000000
H      -0.374100000000000     -4.112700000000000     -0.594400000000000
H      -1.569600000000000     -5.069900000000000      0.260200000000000
H       4.359100000000000     -2.050600000000000      0.001000000000000
H       3.288300000000000     -1.174300000000000     -1.089100000000000
H      -2.760000000000000     -2.968500000000000      0.963200000000000
H      -1.578200000000000     -2.022500000000000      0.054400000000000
H       3.862400000000000      0.974300000000000      0.029600000000000
H       4.888700000000000      0.116200000000000      1.181400000000000
H      -2.240600000000000     -3.248400000000000     -2.047700000000000
H      -3.439800000000000     -4.151700000000000     -1.127200000000000
H       6.313300000000000     -0.711400000000000     -0.718800000000000
H       5.300300000000000      0.179000000000000     -1.851400000000000
H      -4.527200000000000     -2.317800000000000     -2.308900000000000
H      -4.653000000000000     -2.065000000000000     -0.572800000000000
H       5.926500000000000      2.321800000000000     -0.682700000000000
H       6.981700000000000      1.407500000000000      0.390500000000000
H      -4.200600000000000      0.252500000000000      0.060500000000000
H      -2.640900000000000     -0.627100000000000     -2.452300000000000
H       8.355900000000000      0.688400000000000     -1.573800000000000
H       8.271300000000000      2.453900000000000     -1.435600000000000
H       7.290600000000000      1.613300000000000     -2.649900000000000
