62

O       0.458700000000000      2.765700000000000     -2.197600000000000
N       0.002800000000000      1.567900000000000     -0.237700000000000
C      -1.059800000000000      1.336300000000000      0.731900000000000
C       1.363900000000000      1.248800000000000      0.171300000000000
C      -2.415700000000000      1.779900000000000      0.129400000000000
C      -1.066900000000000     -0.168000000000000      1.102100000000000
C       2.170300000000000      0.830300000000000     -1.075400000000000
C       1.316900000000000      0.089200000000000      1.187500000000000
C      -3.440500000000000     -0.529200000000000      0.263600000000000
C       3.487700000000000     -0.900100000000000      0.268300000000000
C      -3.077800000000000      0.650700000000000     -0.655500000000000
C      -2.464500000000000     -0.677500000000000      1.445200000000000
C       3.546400000000000      0.249700000000000     -0.745800000000000
C       2.693400000000000     -0.491600000000000      1.515600000000000
C      -0.760800000000000      2.191300000000000      1.972500000000000
C       1.965800000000000      2.510400000000000      0.811600000000000
C      -3.536100000000000     -1.820700000000000     -0.550100000000000
C       2.929700000000000     -2.179800000000000     -0.361800000000000
C      -0.270600000000000      2.071300000000000     -1.498200000000000
C      -3.997100000000000     -2.978000000000000      0.332800000000000
C      -4.481400000000000     -1.639200000000000     -1.735200000000000
C       2.849000000000000     -3.297100000000000      0.675600000000000
C       3.786600000000000     -2.610400000000000     -1.550000000000000
H      -2.372000000000000      2.719300000000000     -0.433700000000000
H      -3.107000000000000      2.022100000000000      0.950600000000000
H      -0.798300000000000     -0.795800000000000      0.242600000000000
H      -0.595700000000000     -0.435700000000000      2.048500000000000
H       1.609900000000000      0.095300000000000     -1.667600000000000
H       2.369000000000000      1.682500000000000     -1.733000000000000
H       1.003300000000000      0.369100000000000      2.187300000000000
H       0.904100000000000     -0.818500000000000      0.762600000000000
H      -4.430800000000000     -0.322500000000000      0.694900000000000
H       4.518300000000000     -1.104000000000000      0.591700000000000
H      -3.987700000000000      1.038800000000000     -1.129500000000000
H      -2.425800000000000      0.299900000000000     -1.461500000000000
H      -2.398300000000000     -1.695200000000000      1.834000000000000
H      -2.852700000000000     -0.081200000000000      2.283300000000000
H       4.058800000000000     -0.033100000000000     -1.669600000000000
H       4.176500000000000      1.042100000000000     -0.322900000000000
H       3.274900000000000      0.282900000000000      2.035700000000000
H       2.607500000000000     -1.300500000000000      2.247700000000000
H      -0.567200000000000      3.235000000000000      1.695900000000000
H       0.015100000000000      1.861300000000000      2.656700000000000
H      -1.653800000000000      2.218700000000000      2.612300000000000
H       1.658700000000000      2.699500000000000      1.839500000000000
H       1.734100000000000      3.408500000000000      0.227000000000000
H       3.057600000000000      2.450100000000000      0.864300000000000
H      -2.549200000000000     -2.082900000000000     -0.953200000000000
H       1.915600000000000     -2.021500000000000     -0.746400000000000
H      -1.270600000000000      1.877700000000000     -1.881900000000000
H      -4.288200000000000     -3.837600000000000     -0.282300000000000
H      -3.207200000000000     -3.342700000000000      0.994400000000000
H      -4.865400000000000     -2.703100000000000      0.941100000000000
H      -4.090900000000000     -0.936800000000000     -2.477400000000000
H      -4.628900000000000     -2.590500000000000     -2.258900000000000
H      -5.466100000000000     -1.285700000000000     -1.410000000000000
H       2.035800000000000     -3.137200000000000      1.389700000000000
H       2.639300000000000     -4.258200000000000      0.192100000000000
H       3.788600000000000     -3.406000000000000      1.227900000000000
H       4.850200000000000     -2.642900000000000     -1.290600000000000
H       3.500000000000000     -3.612200000000000     -1.890000000000000
H       3.656200000000000     -1.950500000000000     -2.412300000000000
