62

O      -0.098900000000000      2.119700000000000      0.474400000000000
N       2.634400000000000      1.915600000000000      0.593100000000000
C       2.589900000000000      0.590100000000000     -0.052000000000000
C       3.814900000000000      0.393400000000000     -0.997200000000000
C       2.618400000000000     -0.554200000000000      1.007500000000000
C       3.746900000000000     -2.111000000000000     -0.638400000000000
C       5.145300000000000     -0.670200000000000      0.877500000000000
C       3.749300000000000     -0.986900000000000     -1.689500000000000
C       5.133100000000000      0.442300000000000     -0.186300000000000
C       2.552100000000000     -1.934900000000000      0.315600000000000
C       3.937400000000000     -0.504900000000000      1.817100000000000
C       5.049600000000000     -2.034900000000000      0.175400000000000
C       1.278800000000000      0.610400000000000     -0.826700000000000
C       0.052100000000000      0.758200000000000      0.082700000000000
C       3.069400000000000      2.922100000000000     -0.356100000000000
C      -1.220400000000000      0.317400000000000     -0.653300000000000
C      -2.507000000000000      0.427000000000000      0.175500000000000
C      -3.762000000000000      0.002200000000000     -0.591400000000000
C      -5.013000000000000      0.139000000000000      0.280300000000000
C      -6.298600000000000     -0.305600000000000     -0.423900000000000
C      -7.581900000000000     -0.212500000000000      0.407200000000000
C      -8.821800000000000     -0.721700000000000     -0.327900000000000
C     -10.067800000000000     -0.600500000000000      0.536300000000000
H       3.850100000000000      1.131500000000000     -1.806300000000000
H       1.807600000000000     -0.474400000000000      1.736000000000000
H       3.682500000000000     -3.084500000000000     -1.137100000000000
H       6.074600000000000     -0.620600000000000      1.456100000000000
H       2.872100000000000     -1.068800000000000     -2.338800000000000
H       4.618200000000000     -1.107200000000000     -2.349900000000000
H       5.985400000000000      0.310400000000000     -0.865400000000000
H       5.290200000000000      1.405200000000000      0.307400000000000
H       2.570900000000000     -2.727100000000000      1.075600000000000
H       1.608800000000000     -2.064100000000000     -0.224500000000000
H       4.028800000000000      0.418800000000000      2.396800000000000
H       3.939800000000000     -1.316200000000000      2.557100000000000
H       5.077600000000000     -2.842500000000000      0.917200000000000
H       5.914100000000000     -2.180100000000000     -0.484000000000000
H       1.255600000000000      1.387900000000000     -1.598800000000000
H       1.158100000000000     -0.322400000000000     -1.385200000000000
H       3.266300000000000      1.928200000000000      1.388400000000000
H       0.104900000000000      0.155800000000000      0.990100000000000
H       2.508700000000000      2.954000000000000     -1.293700000000000
H       4.140000000000000      2.921400000000000     -0.573000000000000
H       2.885000000000000      3.898400000000000      0.109500000000000
H      -1.344700000000000      0.936700000000000     -1.551300000000000
H      -1.107200000000000     -0.720600000000000     -0.989800000000000
H       0.638900000000000      2.337700000000000      1.068100000000000
H      -2.404100000000000     -0.192700000000000      1.074900000000000
H      -2.632800000000000      1.461700000000000      0.516600000000000
H      -3.871900000000000      0.619200000000000     -1.491100000000000
H      -3.655000000000000     -1.037700000000000     -0.921900000000000
H      -4.885800000000000     -0.456700000000000      1.192700000000000
H      -5.123800000000000      1.183300000000000      0.597200000000000
H      -6.172000000000000     -1.344600000000000     -0.754200000000000
H      -6.426100000000000      0.293700000000000     -1.334400000000000
H      -7.736700000000000      0.831900000000000      0.705000000000000
H      -7.448700000000000     -0.787800000000000      1.331800000000000
H      -8.680000000000000     -1.770600000000000     -0.612900000000000
H      -8.965800000000000     -0.150300000000000     -1.252100000000000
H      -9.966500000000000     -1.186600000000000      1.455200000000000
H     -10.943000000000000     -0.969700000000000     -0.007400000000000
H     -10.254200000000001      0.442400000000000      0.811900000000000
