62

O       5.749800000000000     -0.252700000000000      0.179200000000000
N       2.929400000000000      0.033500000000000     -0.102600000000000
C      -2.732600000000000      1.000600000000000      0.414400000000000
C      -1.327700000000000      0.657100000000000     -0.077500000000000
C      -3.650500000000000     -0.207600000000000      0.239000000000000
C      -0.748600000000000     -0.520900000000000      0.717200000000000
C      -0.407800000000000      1.882100000000000      0.012000000000000
C       1.590200000000000      0.375200000000000      0.373500000000000
C       0.677500000000000     -0.851700000000000      0.277600000000000
C       1.018200000000000      1.550800000000000     -0.426800000000000
C      -3.667600000000000     -0.667400000000000     -1.225000000000000
C      -5.069500000000000      0.114500000000000      0.727100000000000
C      -2.682300000000000      1.385800000000000      1.902500000000000
C      -3.292100000000000      2.182600000000000     -0.395300000000000
C      -4.620300000000000     -1.841900000000000     -1.436000000000000
C      -6.019800000000000     -1.061400000000000      0.512900000000000
C      -6.027400000000000     -1.521100000000000     -0.941700000000000
C       3.508600000000000     -1.048600000000000      0.706000000000000
C       3.812900000000000      1.206600000000000     -0.057200000000000
C       4.901200000000000     -1.405500000000000      0.175500000000000
C       5.217400000000000      0.852500000000000     -0.560400000000000
C       5.562100000000000     -2.462700000000000      1.051800000000000
C       5.278700000000000      0.600100000000000     -2.066400000000000
H      -1.334500000000000      0.390700000000000     -1.140300000000000
H      -3.313400000000000     -1.047200000000000      0.858700000000000
H      -1.335200000000000     -1.433600000000000      0.580200000000000
H      -0.717600000000000     -0.309300000000000      1.791000000000000
H      -0.756400000000000      2.691300000000000     -0.637400000000000
H      -0.337300000000000      2.285800000000000      1.024900000000000
H       1.639300000000000      0.681200000000000      1.429200000000000
H       1.003900000000000     -1.667600000000000      0.929100000000000
H       0.660700000000000     -1.238400000000000     -0.749900000000000
H       1.026400000000000      1.324900000000000     -1.501100000000000
H       1.591100000000000      2.471600000000000     -0.279000000000000
H      -3.981600000000000      0.134400000000000     -1.900800000000000
H      -2.686500000000000     -1.014800000000000     -1.559400000000000
H      -5.518600000000000      0.958900000000000      0.199700000000000
H      -5.083700000000000      0.349900000000000      1.795800000000000
H      -1.931100000000000      2.137400000000000      2.149500000000000
H      -3.626900000000000      1.844200000000000      2.219800000000000
H      -2.524700000000000      0.522700000000000      2.557700000000000
H      -3.192600000000000      2.045000000000000     -1.476300000000000
H      -2.756200000000000      3.108200000000000     -0.151900000000000
H      -4.330700000000000      2.433900000000000     -0.176100000000000
H      -4.654900000000000     -2.103900000000000     -2.499800000000000
H      -4.238600000000000     -2.721900000000000     -0.903500000000000
H      -5.718600000000000     -1.896300000000000      1.157700000000000
H      -7.034600000000000     -0.777400000000000      0.814400000000000
H      -6.464900000000000     -0.735900000000000     -1.570500000000000
H      -6.665500000000000     -2.405900000000000     -1.045600000000000
H       3.570700000000000     -0.747800000000000      1.760400000000000
H       2.925600000000000     -1.970900000000000      0.645000000000000
H       3.884200000000000      1.586700000000000      0.970600000000000
H       3.467200000000000      2.020800000000000     -0.699500000000000
H       4.836000000000000     -1.803900000000000     -0.843900000000000
H       5.878300000000000      1.700800000000000     -0.346000000000000
H       6.560700000000000     -2.702800000000000      0.670800000000000
H       4.970300000000000     -3.382500000000000      1.082400000000000
H       5.697000000000000     -2.096300000000000      2.075600000000000
H       5.019000000000000      1.506600000000000     -2.622400000000000
H       4.596400000000000     -0.194100000000000     -2.384100000000000
H       6.287300000000000      0.288600000000000     -2.358200000000000
