62

O       6.296100000000000      1.622400000000000      1.192600000000000
N       7.815400000000000      0.432300000000000     -0.077500000000000
C       8.177700000000000     -0.615700000000000     -1.026600000000000
C       8.991000000000000      1.173000000000000      0.356400000000000
C       9.625500000000001     -0.315600000000000     -1.388700000000000
C      10.166700000000001      0.335000000000000     -0.121800000000000
C       4.084400000000000      0.275000000000000      0.406600000000000
C       5.437300000000000     -0.132700000000000     -0.169400000000000
C       6.545700000000000      0.725300000000000      0.385700000000000
C       2.894600000000000     -0.567500000000000     -0.069500000000000
C       1.546000000000000     -0.076400000000000      0.463900000000000
C       0.402600000000000     -0.973400000000000     -0.018600000000000
C      -0.972800000000000     -0.537300000000000      0.494800000000000
C      -2.112800000000000     -1.448700000000000      0.034800000000000
C      -3.468500000000000     -0.925700000000000      0.516800000000000
C      -4.606900000000000     -1.852900000000000      0.085800000000000
C      -9.897700000000000      1.470100000000000      0.000500000000000
C      -8.571700000000000      0.848400000000000     -0.477200000000000
C      -8.284300000000000     -0.523200000000000      0.142200000000000
C      -5.938100000000000     -1.321500000000000      0.531400000000000
C      -6.950400000000000     -1.049000000000000     -0.305100000000000
C     -10.071999999999999      2.859400000000000     -0.618300000000000
C     -11.107799999999999      0.598700000000000     -0.338800000000000
H       7.519600000000000     -0.608200000000000     -1.899200000000000
H       8.083600000000001     -1.578900000000000     -0.513600000000000
H       8.980800000000000      1.321700000000000      1.440200000000000
H       8.967700000000001      2.151700000000000     -0.135400000000000
H       9.664400000000001      0.401100000000000     -2.218000000000000
H      10.180800000000000     -1.210500000000000     -1.681900000000000
H      10.403600000000001     -0.438100000000000      0.619000000000000
H      11.066300000000000      0.931100000000000     -0.296700000000000
H       3.890300000000000      1.326000000000000      0.154500000000000
H       4.124400000000000      0.226100000000000      1.502700000000000
H       5.411900000000000     -0.024900000000000     -1.259000000000000
H       5.642300000000000     -1.180800000000000      0.074200000000000
H       2.871000000000000     -0.561400000000000     -1.166300000000000
H       3.052800000000000     -1.608600000000000      0.237900000000000
H       1.371300000000000      0.954000000000000      0.132600000000000
H       1.566700000000000     -0.066000000000000      1.560100000000000
H       0.388200000000000     -0.983100000000000     -1.115500000000000
H       0.592100000000000     -2.004700000000000      0.304500000000000
H      -0.954600000000000     -0.508700000000000      1.591400000000000
H      -1.168300000000000      0.487600000000000      0.155300000000000
H      -2.112200000000000     -1.512500000000000     -1.060000000000000
H      -1.947200000000000     -2.462500000000000      0.418800000000000
H      -3.458700000000000     -0.834100000000000      1.610400000000000
H      -3.636000000000000      0.080700000000000      0.112400000000000
H      -4.585000000000000     -1.983300000000000     -1.003000000000000
H      -4.462500000000000     -2.845200000000000      0.529500000000000
H      -9.856400000000001      1.589300000000000      1.090600000000000
H      -8.581899999999999      0.759800000000000     -1.571800000000000
H      -7.750000000000000      1.533500000000000     -0.228300000000000
H      -9.045000000000000     -1.248900000000000     -0.165300000000000
H      -8.329700000000001     -0.451300000000000      1.235400000000000
H      -6.071700000000000     -1.166000000000000      1.599200000000000
H      -6.822200000000000     -1.215800000000000     -1.371900000000000
H      -9.231800000000000      3.510700000000000     -0.355100000000000
H     -10.988500000000000      3.335700000000000     -0.254200000000000
H     -10.129600000000000      2.804000000000000     -1.710700000000000
H     -11.147500000000001      0.373800000000000     -1.410000000000000
H     -12.039700000000000      1.105700000000000     -0.065900000000000
H     -11.085400000000000     -0.347600000000000      0.209800000000000
