62

O      -4.307500000000000      0.176800000000000      0.628100000000000
N      -3.043000000000000     -1.323400000000000     -0.634000000000000
C      -1.060600000000000     -2.539000000000000      1.321300000000000
C      -2.209900000000000     -3.541600000000000      1.442200000000000
C      -0.247400000000000     -2.649200000000000      0.030100000000000
C      -3.110300000000000     -3.715700000000000      0.221400000000000
C      -0.564400000000000     -1.568700000000000     -1.007700000000000
C      -3.867600000000000     -2.463300000000000     -0.215500000000000
C      -1.973400000000000     -1.591900000000000     -1.608000000000000
C       1.596100000000000      2.150300000000000      0.838000000000000
C       2.690100000000000      1.692900000000000     -0.129500000000000
C       0.562700000000000      3.029200000000000      0.129800000000000
C       3.707300000000000      0.786500000000000      0.568000000000000
C      -0.574400000000000      3.490300000000000      1.046700000000000
C       4.781100000000000      0.304500000000000     -0.410000000000000
C      -1.621700000000000      4.349300000000000      0.329800000000000
C      -3.411400000000000     -0.048400000000000     -0.188000000000000
C       5.840300000000000     -0.589300000000000      0.241100000000000
C      -2.347300000000000      3.595100000000000     -0.790100000000000
C      -2.681500000000000      1.117400000000000     -0.728200000000000
C       6.899500000000000     -1.091100000000000     -0.741200000000000
C      -3.022900000000000      2.341900000000000     -0.310900000000000
C       7.966500000000000     -1.912700000000000     -0.033700000000000
H      -0.386000000000000     -2.726800000000000      2.167400000000000
H      -1.425900000000000     -1.517100000000000      1.470800000000000
H      -1.780600000000000     -4.524100000000000      1.678600000000000
H      -2.823300000000000     -3.265800000000000      2.309000000000000
H       0.811700000000000     -2.528000000000000      0.294500000000000
H      -0.327700000000000     -3.647100000000000     -0.414400000000000
H      -2.536700000000000     -4.133200000000000     -0.612200000000000
H      -3.856200000000000     -4.483500000000000      0.466100000000000
H      -0.362200000000000     -0.588500000000000     -0.560000000000000
H       0.151400000000000     -1.677400000000000     -1.832400000000000
H      -4.545400000000000     -2.161900000000000      0.590700000000000
H      -4.502800000000000     -2.712600000000000     -1.074500000000000
H      -2.161900000000000     -2.553400000000000     -2.098000000000000
H      -2.038100000000000     -0.848300000000000     -2.409300000000000
H       2.044900000000000      2.707500000000000      1.668900000000000
H       1.095300000000000      1.274000000000000      1.267600000000000
H       3.201600000000000      2.568300000000000     -0.547700000000000
H       2.234400000000000      1.152500000000000     -0.968300000000000
H       1.063000000000000      3.909800000000000     -0.291800000000000
H       0.158800000000000      2.461100000000000     -0.714500000000000
H       3.194100000000000     -0.080200000000000      1.002000000000000
H       4.180200000000000      1.330800000000000      1.394200000000000
H      -1.046400000000000      2.622900000000000      1.522400000000000
H      -0.145400000000000      4.085900000000000      1.862500000000000
H       5.276200000000000      1.173300000000000     -0.861300000000000
H       4.302000000000000     -0.247100000000000     -1.228500000000000
H      -1.144100000000000      5.243100000000000     -0.089000000000000
H      -2.354100000000000      4.698900000000000      1.068100000000000
H       5.346500000000000     -1.449800000000000      0.709500000000000
H       6.329800000000000     -0.028700000000000      1.047400000000000
H      -3.116800000000000      4.254400000000000     -1.210700000000000
H      -1.657300000000000      3.383500000000000     -1.614800000000000
H      -1.880200000000000      1.000700000000000     -1.443500000000000
H       6.425200000000000     -1.701200000000000     -1.518400000000000
H       7.374900000000000     -0.239400000000000     -1.241200000000000
H      -3.823900000000000      2.494800000000000      0.407800000000000
H       8.481800000000000     -1.316400000000000      0.726000000000000
H       8.712600000000000     -2.264100000000000     -0.753200000000000
H       7.527100000000000     -2.788000000000000      0.455300000000000
