63

N      -7.139400000000000     -0.046300000000000     -0.315000000000000
N      -7.633200000000000      1.186600000000000     -0.520600000000000
C       1.704200000000000     -0.493300000000000     -0.465000000000000
C       2.962400000000000     -0.101400000000000      0.316300000000000
C       0.368300000000000     -0.157700000000000      0.205300000000000
C       4.263900000000000     -0.411300000000000     -0.427500000000000
C      -0.850600000000000     -0.550200000000000     -0.631900000000000
C       5.484800000000000     -0.007700000000000      0.403500000000000
C      -2.153000000000000     -0.161900000000000      0.071500000000000
C       6.817000000000000     -0.272400000000000     -0.304400000000000
C      -3.373000000000000     -0.522300000000000     -0.777700000000000
C       8.034400000000000      0.199100000000000      0.495800000000000
C      -4.672600000000000     -0.103600000000000     -0.089800000000000
C       9.330800000000000     -0.022100000000000     -0.288200000000000
C      -5.886900000000000     -0.428800000000000     -0.958400000000000
C      10.580600000000000      0.458400000000000      0.455200000000000
C      11.878800000000000      0.215000000000000     -0.315400000000000
C      -7.907900000000000     -0.817800000000000      0.506500000000000
C      13.088600000000000      0.697100000000000      0.470700000000000
C      -8.978500000000000     -0.035000000000000      0.863400000000000
C      -8.756700000000000      1.187600000000000      0.201700000000000
C      -7.558800000000000     -2.204000000000000      0.868000000000000
C      -9.603100000000000      2.391900000000000      0.235800000000000
H       1.736700000000000     -1.572200000000000     -0.663200000000000
H       1.734900000000000      0.000800000000000     -1.444600000000000
H       2.958800000000000     -0.625400000000000      1.280000000000000
H       2.921000000000000      0.971800000000000      0.539800000000000
H       0.320600000000000     -0.664300000000000      1.177100000000000
H       0.336500000000000      0.919900000000000      0.408800000000000
H       4.312500000000000     -1.482800000000000     -0.655100000000000
H       4.276100000000000      0.124500000000000     -1.384100000000000
H      -0.837100000000000     -1.631000000000000     -0.816300000000000
H      -0.797300000000000     -0.054000000000000     -1.608400000000000
H       5.416300000000000      1.060100000000000      0.645800000000000
H       5.472400000000000     -0.550100000000000      1.357000000000000
H      -2.153000000000000      0.916300000000000      0.272900000000000
H      -2.214900000000000     -0.671900000000000      1.040500000000000
H       6.909100000000000     -1.346200000000000     -0.509200000000000
H       6.807900000000000      0.235600000000000     -1.277000000000000
H      -3.299400000000000     -0.026700000000000     -1.753500000000000
H      -3.386300000000000     -1.603100000000000     -0.963900000000000
H       8.080600000000000     -0.341000000000000      1.448900000000000
H       7.928500000000000      1.264800000000000      0.731500000000000
H      -4.649800000000000      0.973000000000000      0.121200000000000
H      -4.756100000000000     -0.610100000000000      0.879400000000000
H       9.436900000000000     -1.090400000000000     -0.514600000000000
H       9.266999999999999      0.500600000000000     -1.250700000000000
H      -5.937600000000000     -1.498400000000000     -1.187600000000000
H      -5.838500000000000      0.107000000000000     -1.913900000000000
H      10.636100000000001     -0.051400000000000      1.425200000000000
H      10.480600000000001      1.530200000000000      0.667200000000000
H      11.989000000000001     -0.854500000000000     -0.528200000000000
H      11.841500000000000      0.736200000000000     -1.278800000000000
H      13.022200000000000      1.770700000000000      0.673600000000000
H      13.170600000000000      0.170600000000000      1.426900000000000
H      14.006300000000000      0.514800000000000     -0.097200000000000
H      -9.800000000000001     -0.311000000000000      1.508900000000000
H      -7.577500000000000     -2.854100000000000     -0.012400000000000
H      -6.564800000000000     -2.258300000000000      1.322300000000000
H      -8.273500000000000     -2.609100000000000      1.592300000000000
H      -9.046300000000000      3.245100000000000      0.637000000000000
H      -9.950300000000000      2.649700000000000     -0.770100000000000
H     -10.485500000000000      2.241500000000000      0.866400000000000
