63

N       0.710300000000000      0.060700000000000      0.222500000000000
N      -3.007900000000000     -0.034600000000000      0.484200000000000
C       3.119600000000000      0.538100000000000      0.239900000000000
C       5.595500000000000      1.077200000000000      0.307100000000000
C       4.655000000000000     -0.254300000000000     -1.614600000000000
C       4.818600000000000     -1.291500000000000      0.676300000000000
C       4.182800000000000      1.588700000000000      0.639400000000000
C       3.245000000000000      0.260700000000000     -1.277000000000000
C       3.408000000000000     -0.773600000000000      1.007700000000000
C       5.692400000000000      0.803500000000000     -1.202800000000000
C       5.855000000000000     -0.228600000000000      1.076700000000000
C       4.919300000000000     -1.553500000000000     -0.835600000000000
C       1.715600000000000      1.050300000000000      0.572000000000000
C      -0.628900000000000      0.537600000000000      0.545300000000000
C      -1.669000000000000     -0.504400000000000      0.144900000000000
C      -4.014100000000000     -1.013800000000000      0.099200000000000
C      -5.436900000000000     -0.548200000000000      0.526900000000000
C      -6.169400000000000      0.670000000000000     -0.120200000000000
C      -3.875700000000000     -1.317200000000000     -1.394900000000000
C      -3.684800000000000     -2.301300000000000      0.886500000000000
C      -7.571200000000000      0.754300000000000      0.533900000000000
C      -6.392500000000000      0.467300000000000     -1.630600000000000
C      -5.466800000000000      2.012700000000000      0.113400000000000
H       6.338000000000000      1.829700000000000      0.594900000000000
H       4.731100000000000     -0.446300000000000     -2.690800000000000
H       5.010300000000000     -2.219700000000000      1.226100000000000
H       4.114600000000000      1.809200000000000      1.712600000000000
H       3.999900000000000      2.533600000000000      0.111500000000000
H       3.038400000000000      1.174000000000000     -1.849700000000000
H       2.528600000000000     -0.495800000000000     -1.616300000000000
H       2.681200000000000     -1.554400000000000      0.751300000000000
H       3.322700000000000     -0.606800000000000      2.089500000000000
H       5.524500000000000      1.731200000000000     -1.763400000000000
H       6.701700000000000      0.456600000000000     -1.456400000000000
H       6.867200000000000     -0.593800000000000      0.863600000000000
H       5.804200000000000     -0.043600000000000      2.156700000000000
H       4.195500000000000     -2.322600000000000     -1.132000000000000
H       5.915100000000000     -1.941800000000000     -1.082500000000000
H       1.656300000000000      1.276400000000000      1.644400000000000
H       1.528000000000000      1.987300000000000      0.031600000000000
H       0.745500000000000     -0.146000000000000     -0.773700000000000
H      -0.833300000000000      1.479000000000000      0.019300000000000
H      -0.702100000000000      0.732200000000000      1.622800000000000
H      -1.397400000000000     -1.424700000000000      0.670300000000000
H      -1.549400000000000     -0.668600000000000     -0.930800000000000
H      -3.063800000000000      0.161100000000000      1.483300000000000
H      -6.103800000000000     -1.414800000000000      0.398900000000000
H      -5.414500000000000     -0.374700000000000      1.614100000000000
H      -3.716500000000000     -0.415500000000000     -1.994000000000000
H      -4.772600000000000     -1.823400000000000     -1.769400000000000
H      -3.047500000000000     -2.000200000000000     -1.620000000000000
H      -3.535500000000000     -2.104200000000000      1.955300000000000
H      -2.817600000000000     -2.852800000000000      0.508400000000000
H      -4.521100000000000     -3.008900000000000      0.815100000000000
H      -8.146800000000001     -0.162200000000000      0.360900000000000
H      -8.152500000000000      1.591100000000000      0.129500000000000
H      -7.492300000000000      0.901200000000000      1.617200000000000
H      -7.136600000000000      1.178400000000000     -2.010700000000000
H      -5.487500000000000      0.648500000000000     -2.213000000000000
H      -6.767900000000000     -0.537300000000000     -1.851700000000000
H      -6.074900000000000      2.849300000000000     -0.249600000000000
H      -5.275600000000000      2.177400000000000      1.179400000000000
H      -4.508200000000000      2.059800000000000     -0.412900000000000
