63

N      -1.187300000000000      0.197800000000000      0.901400000000000
N       2.265300000000000     -0.828400000000000     -0.112800000000000
C      -4.969400000000000      0.328800000000000      0.726300000000000
C      -5.089700000000000     -0.065900000000000     -0.781500000000000
C      -4.369600000000000     -1.380400000000000     -0.343000000000000
C      -5.135800000000000     -1.195900000000000      0.997100000000000
C      -3.576600000000000      0.824500000000000      1.167300000000000
C      -2.854000000000000     -1.256800000000000     -0.139100000000000
C      -2.491900000000000      0.186400000000000      0.260800000000000
C      -6.534400000000000     -0.293600000000000     -1.218900000000000
C      -4.451100000000000      0.791500000000000     -1.849100000000000
C      -3.527400000000000      2.352200000000000      1.136500000000000
C      -0.160400000000000     -0.316000000000000     -0.009100000000000
C       1.191500000000000     -0.314100000000000      0.720300000000000
C      -0.158300000000000      0.541100000000000     -1.274800000000000
C       3.541600000000000     -0.788900000000000      0.608400000000000
C       4.592000000000000     -1.556600000000000     -0.208000000000000
C       3.900400000000000      0.643800000000000      1.028000000000000
C       6.023300000000000     -1.452600000000000      0.324500000000000
C       4.142300000000000      1.672200000000000     -0.076300000000000
C       6.926100000000000     -0.502300000000000     -0.465600000000000
C       5.308700000000000      1.420900000000000     -1.031400000000000
C       6.614600000000000      0.992400000000000     -0.361100000000000
H      -5.788600000000000      0.931300000000000      1.134400000000000
H      -4.640900000000000     -2.287900000000000     -0.892500000000000
H      -6.156600000000000     -1.586100000000000      1.039900000000000
H      -4.629400000000000     -1.578500000000000      1.890800000000000
H      -3.420700000000000      0.514300000000000      2.210000000000000
H      -2.537900000000000     -1.984800000000000      0.619400000000000
H      -2.358900000000000     -1.532800000000000     -1.077300000000000
H      -2.430900000000000      0.839800000000000     -0.603100000000000
H      -7.155300000000000     -0.853400000000000     -0.516100000000000
H      -7.045000000000000      0.665500000000000     -1.371900000000000
H      -6.571200000000000     -0.843400000000000     -2.167400000000000
H      -3.487400000000000      0.415200000000000     -2.199500000000000
H      -5.052400000000000      0.803000000000000     -2.768900000000000
H      -4.368800000000000      1.839300000000000     -1.559400000000000
H      -2.566500000000000      2.713200000000000      1.518600000000000
H      -3.660700000000000      2.769400000000000      0.137500000000000
H      -4.314200000000000      2.773600000000000      1.771900000000000
H      -1.208300000000000     -0.366200000000000      1.750800000000000
H      -0.352500000000000     -1.359800000000000     -0.283600000000000
H       1.109600000000000     -0.912100000000000      1.637400000000000
H       1.365300000000000      0.725700000000000      1.012100000000000
H      -0.170800000000000      1.613100000000000     -1.044700000000000
H       0.744900000000000      0.360700000000000     -1.868600000000000
H      -0.989000000000000      0.310800000000000     -1.948800000000000
H       2.053300000000000     -1.786400000000000     -0.390100000000000
H       3.420400000000000     -1.360000000000000      1.540800000000000
H       4.307700000000000     -2.618900000000000     -0.180500000000000
H       4.553300000000000     -1.289200000000000     -1.269500000000000
H       3.159600000000000      1.052400000000000      1.723900000000000
H       4.795800000000000      0.600700000000000      1.659600000000000
H       6.475300000000000     -2.450400000000000      0.239900000000000
H       6.045400000000000     -1.213500000000000      1.393100000000000
H       4.320900000000000      2.637800000000000      0.416100000000000
H       3.226900000000000      1.808200000000000     -0.664800000000000
H       6.933800000000000     -0.800100000000000     -1.521800000000000
H       7.953000000000000     -0.649800000000000     -0.106300000000000
H       5.493400000000000      2.368900000000000     -1.555100000000000
H       5.018500000000000      0.720500000000000     -1.820200000000000
H       7.431500000000000      1.515100000000000     -0.876800000000000
H       6.665900000000000      1.328100000000000      0.680300000000000
