63

N      -4.235200000000000     -0.668900000000000      1.124300000000000
N      -5.552700000000000      2.030900000000000     -1.094200000000000
C      -0.465500000000000     -3.254000000000000     -0.998000000000000
C      -1.821200000000000     -3.309700000000000     -0.284400000000000
C       0.638000000000000     -2.600600000000000     -0.161300000000000
C      -2.402800000000000     -1.926900000000000      0.029600000000000
C       2.007900000000000     -2.612800000000000     -0.848300000000000
C      -3.722100000000000     -1.995200000000000      0.802700000000000
C       3.119600000000000     -1.985800000000000     -0.003100000000000
C       4.448800000000000     -1.958700000000000     -0.768000000000000
C      -4.904200000000000     -0.079300000000000     -0.036900000000000
C      -5.155300000000000     -0.733700000000000      2.261200000000000
C      -4.901900000000000      1.442600000000000      0.071400000000000
C       5.595500000000000     -1.365700000000000      0.053700000000000
C       5.333100000000000      0.025700000000000      0.445600000000000
C      -5.582300000000000      3.482900000000000     -0.993800000000000
C       1.422400000000000      2.512500000000000     -0.009300000000000
C       2.877500000000000      2.578300000000000     -0.485400000000000
C       0.484500000000000      1.831000000000000     -1.008900000000000
C       5.107500000000000      1.166200000000000      0.746900000000000
C       3.807900000000000      3.181200000000000      0.528200000000000
C       4.829800000000000      2.517200000000000      1.085800000000000
C      -0.929200000000000      1.722500000000000     -0.457700000000000
H      -0.574500000000000     -2.713200000000000     -1.945900000000000
H      -0.165200000000000     -4.278200000000000     -1.250700000000000
H      -1.714600000000000     -3.883100000000000      0.644600000000000
H      -2.528500000000000     -3.860100000000000     -0.916500000000000
H       0.379100000000000     -1.558500000000000      0.054800000000000
H       0.715200000000000     -3.118200000000000      0.802600000000000
H      -1.691200000000000     -1.354500000000000      0.634900000000000
H      -2.523600000000000     -1.383500000000000     -0.913700000000000
H       1.929700000000000     -2.074600000000000     -1.801300000000000
H       2.280000000000000     -3.647600000000000     -1.090300000000000
H      -4.462900000000000     -2.591000000000000      0.253100000000000
H      -3.513500000000000     -2.546100000000000      1.729900000000000
H       3.238500000000000     -2.555400000000000      0.926300000000000
H       2.818500000000000     -0.969400000000000      0.275100000000000
H       4.719900000000000     -2.979400000000000     -1.064100000000000
H       4.323100000000000     -1.380400000000000     -1.692400000000000
H      -4.384100000000000     -0.335400000000000     -0.967800000000000
H      -5.926100000000000     -0.467100000000000     -0.148200000000000
H      -6.024200000000000     -1.369400000000000      2.054700000000000
H      -4.643300000000000     -1.135300000000000      3.143400000000000
H      -5.514700000000000      0.258200000000000      2.551500000000000
H      -5.427700000000000      1.765700000000000      0.976600000000000
H      -3.868600000000000      1.802600000000000      0.140300000000000
H       5.760700000000000     -1.976200000000000      0.949100000000000
H       6.517900000000000     -1.410900000000000     -0.536600000000000
H      -6.506700000000000      1.678600000000000     -1.168200000000000
H      -6.063000000000000      3.899600000000000     -1.884400000000000
H      -6.150800000000000      3.815000000000000     -0.118900000000000
H      -4.570300000000000      3.897800000000000     -0.942500000000000
H       1.384000000000000      1.966200000000000      0.942300000000000
H       1.058800000000000      3.527400000000000      0.196600000000000
H       2.922200000000000      3.202600000000000     -1.387300000000000
H       3.187200000000000      1.579200000000000     -0.807600000000000
H       0.468600000000000      2.396500000000000     -1.947400000000000
H       0.856200000000000      0.826000000000000     -1.240500000000000
H       3.634600000000000      4.215000000000000      0.815300000000000
H       5.466200000000000      3.011800000000000      1.811700000000000
H      -1.345200000000000      2.713300000000000     -0.249300000000000
H      -1.580900000000000      1.225800000000000     -1.183300000000000
H      -0.946500000000000      1.140500000000000      0.469100000000000
