63

N      -0.500300000000000     -1.635200000000000     -0.114000000000000
N      -1.018300000000000      1.178400000000000      0.050700000000000
C       1.828200000000000      0.245900000000000      0.002600000000000
C       0.888000000000000      0.001800000000000      1.214800000000000
C       0.894000000000000      0.146600000000000     -1.234300000000000
C       0.245900000000000     -1.410500000000000      1.131600000000000
C       0.251700000000000     -1.265400000000000     -1.321000000000000
C      -0.215400000000000      1.093800000000000      1.278300000000000
C      -0.209000000000000      1.239200000000000     -1.174000000000000
C       2.534200000000000      1.621100000000000      0.085500000000000
C       2.977600000000000     -0.789300000000000     -0.056000000000000
C       3.466300000000000      1.669200000000000      1.281900000000000
C       3.850500000000000     -0.546800000000000     -1.273400000000000
C      -0.998200000000000     -3.005000000000000     -0.196100000000000
C      -1.971700000000000      2.282100000000000      0.113600000000000
C      -2.209100000000000     -3.246000000000000      0.721400000000000
C       4.143700000000000      3.027100000000000      1.375100000000000
C       4.966900000000000     -1.576400000000000     -1.342000000000000
C      -3.209800000000000      1.960600000000000     -0.722600000000000
C      -3.352100000000000     -2.307400000000000      0.325600000000000
C      -2.697300000000000     -4.696500000000000      0.681000000000000
C      -4.212500000000000      3.075300000000000     -0.654600000000000
C      -5.453300000000000      2.937300000000000     -0.174100000000000
H       1.447700000000000      0.029200000000000      2.156100000000000
H       1.447200000000000      0.328000000000000     -2.161900000000000
H      -0.427900000000000     -1.510100000000000      1.990400000000000
H       1.020200000000000     -2.174700000000000      1.268400000000000
H       1.019600000000000     -2.014400000000000     -1.546600000000000
H      -0.433500000000000     -1.273300000000000     -2.178900000000000
H       0.229900000000000      2.065400000000000      1.521500000000000
H      -0.880900000000000      0.852900000000000      2.117900000000000
H      -0.855400000000000      1.105900000000000     -2.049800000000000
H       0.251800000000000      2.227700000000000     -1.289300000000000
H       1.811800000000000      2.435400000000000      0.197400000000000
H       3.056100000000000      1.879100000000000     -0.841600000000000
H       2.585200000000000     -1.807500000000000     -0.142200000000000
H       3.561000000000000     -0.835700000000000      0.868300000000000
H       4.284600000000000      0.949200000000000      1.219500000000000
H       2.936700000000000      1.499200000000000      2.223100000000000
H       3.285900000000000     -0.621000000000000     -2.206400000000000
H       4.347000000000000      0.425600000000000     -1.257600000000000
H      -1.319800000000000     -3.222400000000000     -1.224300000000000
H      -0.201400000000000     -3.726900000000000      0.027100000000000
H      -2.310600000000000      2.424600000000000      1.149400000000000
H      -1.514400000000000      3.233200000000000     -0.189300000000000
H      -1.938700000000000     -3.037900000000000      1.762900000000000
H       4.734500000000000      3.235700000000000      0.477100000000000
H       4.817800000000000      3.057400000000000      2.237300000000000
H       3.406700000000000      3.827700000000000      1.495800000000000
H       5.605700000000000     -1.524800000000000     -0.454200000000000
H       5.595000000000000     -1.398000000000000     -2.220800000000000
H       4.563300000000000     -2.591400000000000     -1.417100000000000
H      -2.945100000000000      1.820500000000000     -1.776600000000000
H      -3.658200000000000      1.019600000000000     -0.380400000000000
H      -3.080400000000000     -1.258200000000000      0.475800000000000
H      -4.239200000000000     -2.499400000000000      0.939200000000000
H      -3.636100000000000     -2.441600000000000     -0.723800000000000
H      -1.898100000000000     -5.379800000000000      0.986800000000000
H      -3.543600000000000     -4.844000000000000      1.360100000000000
H      -3.016700000000000     -4.978900000000000     -0.327800000000000
H      -3.905300000000000      4.047200000000000     -1.032200000000000
H      -6.133000000000000      3.782300000000000     -0.157800000000000
H      -5.811000000000000      1.988300000000000      0.209400000000000
