63

N      -1.263100000000000      0.312400000000000      0.027300000000000
N       1.038000000000000      0.535700000000000     -0.456600000000000
C      -2.454200000000000     -0.094000000000000     -0.701700000000000
C       2.283900000000000      0.051500000000000      0.116700000000000
C      -3.041800000000000     -1.405700000000000     -0.125900000000000
C      -3.496400000000000      1.049200000000000     -0.691000000000000
C       3.020500000000000     -0.918700000000000     -0.839600000000000
C       3.176000000000000      1.243100000000000      0.547400000000000
C      -0.060400000000000     -0.434600000000000     -0.362900000000000
C      -0.925400000000000      1.720400000000000     -0.182600000000000
C       0.542200000000000      1.742100000000000      0.205800000000000
C      -3.628300000000000     -1.207400000000000      1.281600000000000
C      -4.178900000000000      1.210300000000000      0.680900000000000
C       4.343400000000000     -1.392800000000000     -0.209700000000000
C       4.493800000000000      0.728200000000000      1.150700000000000
C      -4.670300000000000     -0.082500000000000      1.352700000000000
C       5.244600000000000     -0.227300000000000      0.214800000000000
C      -2.017900000000000     -2.547000000000000     -0.119200000000000
C      -4.505800000000000      0.900600000000000     -1.834500000000000
C       2.173500000000000     -2.144900000000000     -1.203200000000000
C       3.448200000000000      2.253900000000000     -0.576600000000000
C      -6.035300000000000     -0.543400000000000      0.836900000000000
C       6.513700000000000     -0.749100000000000      0.888900000000000
H      -2.192900000000000     -0.266900000000000     -1.755900000000000
H       2.069200000000000     -0.495100000000000      1.048100000000000
H      -3.852200000000000     -1.728200000000000     -0.791500000000000
H      -3.065400000000000      2.025700000000000     -0.929500000000000
H       3.262800000000000     -0.394400000000000     -1.774000000000000
H       2.699000000000000      1.795100000000000      1.366700000000000
H       0.141400000000000     -1.180000000000000      0.406600000000000
H      -0.181700000000000     -0.892400000000000     -1.345200000000000
H      -1.008100000000000      2.029600000000000     -1.234200000000000
H      -1.480900000000000      2.404400000000000      0.465900000000000
H       0.600800000000000      1.673100000000000      1.301400000000000
H       0.966300000000000      2.692400000000000     -0.118200000000000
H      -2.816400000000000     -0.970500000000000      1.982200000000000
H      -4.069300000000000     -2.147100000000000      1.637700000000000
H      -5.002900000000000      1.931300000000000      0.608600000000000
H      -3.455600000000000      1.669600000000000      1.367400000000000
H       4.885200000000000     -2.023500000000000     -0.926200000000000
H       4.125700000000000     -2.025600000000000      0.661400000000000
H       4.270900000000000      0.211600000000000      2.094100000000000
H       5.138900000000000      1.577400000000000      1.409600000000000
H      -4.823100000000000      0.151600000000000      2.415600000000000
H       5.559300000000000      0.313500000000000     -0.685100000000000
H      -2.556900000000000     -3.496200000000000     -0.000100000000000
H      -1.475400000000000     -2.630300000000000     -1.064400000000000
H      -1.333500000000000     -2.505600000000000      0.730400000000000
H      -5.282600000000000      1.670500000000000     -1.775500000000000
H      -4.001700000000000      1.017200000000000     -2.800800000000000
H      -4.995900000000000     -0.073900000000000     -1.847300000000000
H       1.432500000000000     -1.915900000000000     -1.970700000000000
H       2.809200000000000     -2.919200000000000     -1.650600000000000
H       1.698100000000000     -2.599200000000000     -0.329200000000000
H       2.593100000000000      2.523900000000000     -1.195400000000000
H       3.852000000000000      3.179600000000000     -0.150700000000000
H       4.198500000000000      1.879700000000000     -1.279800000000000
H      -5.991700000000000     -0.948500000000000     -0.175300000000000
H      -6.756100000000000      0.280700000000000      0.846300000000000
H      -6.433700000000000     -1.335000000000000      1.481600000000000
H       6.279900000000000     -1.311800000000000      1.799100000000000
H       7.175800000000000      0.078900000000000      1.163100000000000
H       7.067300000000000     -1.411300000000000      0.214700000000000
