63

N      -0.824500000000000      0.788900000000000     -0.445500000000000
N       2.869800000000000      0.876000000000000      0.014800000000000
C      -3.417000000000000     -0.567500000000000     -0.697100000000000
C      -4.181000000000000     -1.454100000000000      0.337100000000000
C      -5.461900000000000     -0.820200000000000     -0.287800000000000
C      -4.652200000000000     -0.804500000000000     -1.613300000000000
C      -3.280600000000000      0.917900000000000     -0.309100000000000
C      -5.778800000000000      0.600600000000000      0.188400000000000
C      -4.482700000000000      1.343700000000000      0.576600000000000
C      -4.049300000000000     -2.946600000000000      0.047800000000000
C      -3.942000000000000     -1.279700000000000      1.818700000000000
C      -1.949300000000000      1.131500000000000      0.412900000000000
C      -4.704600000000000      2.855800000000000      0.553800000000000
C       0.441300000000000      0.987900000000000      0.251900000000000
C       3.998800000000000      0.538300000000000     -0.860100000000000
C       1.609100000000000      0.660900000000000     -0.674000000000000
C       5.338300000000000      0.835700000000000     -0.139600000000000
C       5.572300000000000     -0.151800000000000      1.036200000000000
C       3.895400000000000     -0.935200000000000     -1.281800000000000
C       5.461800000000000     -1.618000000000000      0.588600000000000
C       4.142600000000000     -1.902200000000000     -0.125200000000000
C       6.494200000000000      0.857000000000000     -1.152000000000000
C       6.900100000000000      0.085800000000000      1.758700000000000
H      -2.507900000000000     -1.011900000000000     -1.116300000000000
H      -6.353100000000000     -1.456000000000000     -0.314300000000000
H      -4.892200000000000      0.008300000000000     -2.308400000000000
H      -4.663100000000000     -1.723500000000000     -2.206400000000000
H      -3.279400000000000      1.519300000000000     -1.229100000000000
H      -6.446500000000000      0.564700000000000      1.057600000000000
H      -6.320700000000000      1.137900000000000     -0.599600000000000
H      -4.240700000000000      1.154600000000000      1.623200000000000
H      -3.077000000000000     -3.319800000000000      0.393300000000000
H      -4.826800000000000     -3.515600000000000      0.572000000000000
H      -4.119700000000000     -3.226700000000000     -1.005700000000000
H      -2.894500000000000     -1.085600000000000      2.054100000000000
H      -4.587900000000000     -0.557600000000000      2.315900000000000
H      -4.182200000000000     -2.205800000000000      2.360700000000000
H      -1.866900000000000      2.185600000000000      0.703700000000000
H      -1.897200000000000      0.547700000000000      1.333700000000000
H      -5.546900000000000      3.132900000000000      1.197000000000000
H      -3.823100000000000      3.396000000000000      0.912400000000000
H      -4.925700000000000      3.207500000000000     -0.459700000000000
H      -0.848500000000000      1.359900000000000     -1.290000000000000
H       0.523500000000000      2.028600000000000      0.590500000000000
H       0.485600000000000      0.341600000000000      1.137700000000000
H       3.940200000000000      1.168700000000000     -1.757400000000000
H       1.554600000000000      1.283000000000000     -1.576300000000000
H       1.458400000000000     -0.380900000000000     -0.966000000000000
H       5.285000000000000      1.850700000000000      0.280100000000000
H       4.781000000000000      0.025300000000000      1.777900000000000
H       2.977100000000000     -1.195500000000000     -1.812700000000000
H       4.674300000000000     -1.120800000000000     -2.034700000000000
H       2.942200000000000      1.850000000000000      0.307700000000000
H       6.296400000000000     -1.877400000000000     -0.073900000000000
H       5.543100000000000     -2.278500000000000      1.460600000000000
H       3.316100000000000     -1.843200000000000      0.593000000000000
H       4.152600000000000     -2.930200000000000     -0.505900000000000
H       6.262100000000000      1.525400000000000     -1.988400000000000
H       6.709500000000000     -0.132400000000000     -1.564500000000000
H       7.412200000000000      1.234900000000000     -0.690700000000000
H       7.758700000000000     -0.183500000000000      1.135500000000000
H       6.953100000000000     -0.521200000000000      2.669200000000000
H       7.001500000000000      1.135600000000000      2.052300000000000
