63

N      -0.791600000000000      0.210300000000000     -0.190700000000000
N       2.728100000000000     -0.760500000000000      0.544000000000000
C      -4.425600000000000     -0.461900000000000     -1.100300000000000
C      -5.302500000000000     -0.937100000000000      0.101800000000000
C      -5.862100000000000      0.518700000000000      0.078000000000000
C      -5.640700000000000      0.442100000000000     -1.457600000000000
C      -3.192100000000000      0.378800000000000     -0.716600000000000
C      -4.953600000000000      1.571500000000000      0.720100000000000
C      -3.472100000000000      1.155600000000000      0.598300000000000
C      -6.338200000000000     -1.983500000000000     -0.299300000000000
C      -4.653900000000000     -1.437400000000000      1.371400000000000
C      -1.977700000000000     -0.540400000000000     -0.576800000000000
C      -2.559500000000000      2.372200000000000      0.751000000000000
C       0.360600000000000     -0.673800000000000     -0.052500000000000
C       1.584800000000000      0.122700000000000      0.389200000000000
C       3.916700000000000     -0.000100000000000      0.942800000000000
C       5.058800000000000     -0.952000000000000      1.321300000000000
C       4.219600000000000      1.049800000000000     -0.136600000000000
C       5.601700000000000     -1.875400000000000      0.231200000000000
C       5.549800000000000      1.786300000000000      0.037400000000000
C       6.261500000000000     -1.223700000000000     -0.983900000000000
C       6.660800000000000      1.319500000000000     -0.906200000000000
C       7.227300000000000     -0.081700000000000     -0.665600000000000
H      -4.209500000000000     -1.215000000000000     -1.866600000000000
H      -6.909300000000000      0.639300000000000      0.374500000000000
H      -6.438000000000000     -0.014200000000000     -2.051500000000000
H      -5.399600000000000      1.390400000000000     -1.951600000000000
H      -2.996400000000000      1.089200000000000     -1.531900000000000
H      -5.209100000000000      1.687800000000000      1.780300000000000
H      -5.129400000000000      2.545000000000000      0.246000000000000
H      -3.228100000000000      0.559500000000000      1.478600000000000
H      -5.853700000000000     -2.940600000000000     -0.528200000000000
H      -7.045800000000000     -2.159000000000000      0.520600000000000
H      -6.944500000000000     -1.732000000000000     -1.172400000000000
H      -3.586600000000000     -1.290000000000000      1.476300000000000
H      -5.144500000000000     -1.008400000000000      2.252900000000000
H      -4.760800000000000     -2.526100000000000      1.471600000000000
H      -2.152600000000000     -1.356000000000000      0.127100000000000
H      -1.800000000000000     -1.021900000000000     -1.548100000000000
H      -1.547000000000000      2.115600000000000      1.067700000000000
H      -2.502000000000000      2.951400000000000     -0.176600000000000
H      -2.948500000000000      3.042200000000000      1.527400000000000
H      -0.594200000000000      0.926600000000000     -0.889100000000000
H       0.145600000000000     -1.448600000000000      0.694200000000000
H       0.569400000000000     -1.175100000000000     -1.006300000000000
H       1.367800000000000      0.641700000000000      1.331400000000000
H       1.745000000000000      0.875600000000000     -0.388100000000000
H       2.521100000000000     -1.470000000000000      1.246500000000000
H       3.678400000000000      0.544800000000000      1.868000000000000
H       5.882200000000000     -0.382700000000000      1.766400000000000
H       4.704400000000000     -1.595400000000000      2.139900000000000
H       4.127700000000000      0.642900000000000     -1.149400000000000
H       3.463600000000000      1.842700000000000     -0.067100000000000
H       4.807600000000000     -2.546500000000000     -0.118200000000000
H       6.348600000000000     -2.527300000000000      0.704400000000000
H       5.891500000000000      1.766900000000000      1.078000000000000
H       5.374400000000000      2.846200000000000     -0.193100000000000
H       5.505500000000000     -0.911000000000000     -1.710800000000000
H       6.828800000000000     -2.014200000000000     -1.494000000000000
H       7.492200000000000      2.030300000000000     -0.811900000000000
H       6.315400000000000      1.400000000000000     -1.944700000000000
H       8.089700000000001     -0.187200000000000     -1.337600000000000
H       7.633900000000000     -0.166500000000000      0.348000000000000
