63

N      -0.903200000000000      0.339700000000000      0.006600000000000
N       2.644100000000000     -0.792600000000000      0.365700000000000
C      -5.482400000000000     -0.631900000000000     -0.179300000000000
C      -4.528600000000000      0.145900000000000     -1.143800000000000
C      -5.962900000000000      0.789600000000000      0.254500000000000
C      -5.682600000000000      1.189200000000000     -1.221900000000000
C      -3.278700000000000      0.749000000000000     -0.476800000000000
C      -5.024200000000000      1.520100000000000      1.221000000000000
C      -3.577800000000000      1.060300000000000      1.002100000000000
C      -6.502800000000000     -1.598000000000000     -0.734700000000000
C      -4.734200000000000     -1.375400000000000      0.923100000000000
C      -2.101100000000000     -0.213100000000000     -0.603700000000000
C       0.219800000000000     -0.592500000000000     -0.124300000000000
C       1.475500000000000      0.065000000000000      0.467700000000000
C      -0.152300000000000     -1.904100000000000      0.567200000000000
C       3.825100000000000     -0.122300000000000      0.918700000000000
C       4.994500000000000     -1.108600000000000      1.035600000000000
C       4.083100000000000      1.165700000000000      0.123000000000000
C       5.532600000000000     -1.725300000000000     -0.255200000000000
C       5.401400000000000      1.871200000000000      0.450100000000000
C       6.152400000000000     -0.781100000000000     -1.285300000000000
C       6.501000000000000      1.676000000000000     -0.596400000000000
C       7.101200000000000      0.273000000000000     -0.713700000000000
H      -4.320400000000000     -0.338500000000000     -2.104100000000000
H      -7.014100000000000      0.874100000000000      0.548300000000000
H      -5.390800000000000      2.229100000000000     -1.399200000000000
H      -6.482900000000000      0.946700000000000     -1.930500000000000
H      -3.024200000000000      1.683300000000000     -0.996500000000000
H      -5.106500000000000      2.603000000000000      1.068200000000000
H      -5.316400000000000      1.330300000000000      2.260100000000000
H      -3.231300000000000      0.293800000000000      1.699100000000000
H      -2.938000000000000      1.908000000000000      1.292000000000000
H      -7.235500000000000     -1.891600000000000      0.025900000000000
H      -7.070100000000000     -1.168500000000000     -1.566600000000000
H      -6.023600000000000     -2.506400000000000     -1.117400000000000
H      -3.807300000000000     -1.851000000000000      0.630200000000000
H      -4.688100000000000     -0.888100000000000      1.896800000000000
H      -5.330800000000000     -2.257200000000000      1.212900000000000
H      -1.914200000000000     -0.377900000000000     -1.673800000000000
H      -2.345300000000000     -1.183300000000000     -0.200600000000000
H      -0.670200000000000      1.228600000000000     -0.435200000000000
H       0.411000000000000     -0.794400000000000     -1.187100000000000
H       1.606600000000000      0.999200000000000     -0.087100000000000
H       1.289500000000000      0.320300000000000      1.519200000000000
H      -0.837900000000000     -2.514800000000000     -0.028900000000000
H       0.731100000000000     -2.534400000000000      0.718900000000000
H      -0.594300000000000     -1.735300000000000      1.556200000000000
H       2.806300000000000     -1.037900000000000     -0.610400000000000
H       3.596000000000000      0.172100000000000      1.953100000000000
H       5.815100000000000     -0.646000000000000      1.594800000000000
H       4.666700000000000     -1.940900000000000      1.675600000000000
H       3.978000000000000      1.017900000000000     -0.957200000000000
H       3.313400000000000      1.899000000000000      0.396300000000000
H       4.749600000000000     -2.316500000000000     -0.745000000000000
H       6.305100000000000     -2.450600000000000      0.034500000000000
H       5.765800000000000      1.607500000000000      1.448800000000000
H       5.199400000000000      2.950500000000000      0.487800000000000
H       5.374400000000000     -0.320100000000000     -1.901500000000000
H       6.724600000000000     -1.409300000000000     -1.981600000000000
H       7.319500000000000      2.363200000000000     -0.344900000000000
H       6.131800000000000      1.998100000000000     -1.578400000000000
H       7.951000000000000      0.356000000000000     -1.404900000000000
H       7.531200000000000     -0.045500000000000      0.242100000000000
