63

N      -1.469800000000000      0.110500000000000      0.474300000000000
N       1.684300000000000     -0.180900000000000      0.203700000000000
C      -2.838600000000000      0.621900000000000      0.395300000000000
C       2.987700000000000     -0.007400000000000      0.853800000000000
C      -0.527600000000000      0.985900000000000     -0.220300000000000
C       0.832600000000000      0.979200000000000      0.491700000000000
C      -1.426500000000000     -1.284000000000000      0.025600000000000
C       1.088000000000000     -1.460800000000000      0.611000000000000
C      -3.708300000000000     -0.259800000000000      1.308900000000000
C      -3.248200000000000      0.684900000000000     -1.087900000000000
C       3.584500000000000      1.336200000000000      0.409500000000000
C       3.870800000000000     -1.249100000000000      0.675300000000000
C      -0.054400000000000     -1.874100000000000     -0.316000000000000
C      -5.132400000000000      0.255200000000000      1.531900000000000
C      -4.578000000000000      1.393500000000000     -1.356700000000000
C       5.024500000000000      1.582900000000000      0.865700000000000
C       4.283400000000000     -1.626100000000000     -0.747200000000000
C      -6.218600000000000     -0.461100000000000      0.730200000000000
C      -5.763900000000000      0.471400000000000     -1.637100000000000
C       6.076900000000000      1.396900000000000     -0.229900000000000
C       5.153500000000000     -0.633300000000000     -1.517900000000000
C      -5.933800000000000     -0.749800000000000     -0.739900000000000
C       6.313800000000000     -0.032000000000000     -0.724100000000000
H      -2.856600000000000      1.637700000000000      0.813300000000000
H       2.825800000000000      0.074200000000000      1.940200000000000
H      -0.877200000000000      2.027100000000000     -0.174200000000000
H      -0.413300000000000      0.744700000000000     -1.285100000000000
H       1.285900000000000      1.895300000000000      0.103500000000000
H       0.694400000000000      1.119300000000000      1.572700000000000
H      -2.059800000000000     -1.523300000000000     -0.829800000000000
H      -1.787300000000000     -1.905900000000000      0.854700000000000
H       0.772900000000000     -1.453600000000000      1.662100000000000
H       1.768400000000000     -2.302000000000000      0.488400000000000
H      -3.227200000000000     -0.291500000000000      2.297600000000000
H      -3.770900000000000     -1.299100000000000      0.972000000000000
H      -3.282400000000000     -0.284200000000000     -1.589000000000000
H      -2.511400000000000      1.271700000000000     -1.649000000000000
H       3.028900000000000      2.144700000000000      0.901900000000000
H       3.482200000000000      1.505700000000000     -0.667800000000000
H       3.475100000000000     -2.129500000000000      1.192600000000000
H       4.788700000000000     -1.085200000000000      1.253000000000000
H      -0.150100000000000     -2.968500000000000     -0.289800000000000
H       0.205800000000000     -1.629500000000000     -1.354800000000000
H      -5.190500000000000      1.337500000000000      1.383900000000000
H      -5.381300000000000      0.109700000000000      2.592300000000000
H      -4.455200000000000      2.021600000000000     -2.250200000000000
H      -4.817200000000000      2.101800000000000     -0.557900000000000
H       5.278800000000000      0.996000000000000      1.754800000000000
H       5.096000000000000      2.632800000000000      1.182300000000000
H       3.396900000000000     -1.859000000000000     -1.348600000000000
H       4.845100000000000     -2.567700000000000     -0.677900000000000
H      -7.150600000000000      0.111500000000000      0.814900000000000
H      -6.415900000000000     -1.424500000000000      1.219100000000000
H      -5.668900000000000      0.107200000000000     -2.668900000000000
H      -6.683800000000000      1.069000000000000     -1.616500000000000
H       7.031200000000000      1.770700000000000      0.163800000000000
H       5.833000000000000      2.042200000000000     -1.083500000000000
H       4.535700000000000      0.149400000000000     -1.968900000000000
H       5.575400000000000     -1.182500000000000     -2.370700000000000
H      -5.077200000000000     -1.423700000000000     -0.841400000000000
H      -6.787400000000000     -1.321500000000000     -1.129000000000000
H       7.178700000000000      0.015300000000000     -1.399900000000000
H       6.625400000000000     -0.683300000000000      0.099600000000000
