64

O      -8.414999999999999     -1.638300000000000     -0.175600000000000
O      -7.713200000000000      0.514500000000000     -0.346400000000000
C      -0.007700000000000      0.907300000000000      0.653400000000000
C      -1.139100000000000     -0.174200000000000      0.687800000000000
C       1.167800000000000      0.215700000000000     -0.112800000000000
C      -2.521400000000000      0.368100000000000      0.287400000000000
C      -0.624900000000000     -1.338800000000000     -0.169600000000000
C       0.881200000000000     -1.278800000000000      0.015900000000000
C      -0.456800000000000      2.200300000000000     -0.069000000000000
C       2.582600000000000      0.572900000000000      0.326000000000000
C      -2.512800000000000      1.071500000000000     -1.076900000000000
C      -1.274800000000000      1.932200000000000     -1.329300000000000
C       0.369500000000000      1.281100000000000      2.101700000000000
C      -3.603100000000000     -0.713200000000000      0.326600000000000
C       3.622200000000000     -0.465500000000000     -0.135600000000000
C       2.952200000000000      1.955100000000000     -0.216500000000000
C      -5.007300000000000     -0.167500000000000      0.082800000000000
C       5.061700000000000     -0.094400000000000      0.234600000000000
C      -6.089600000000000     -1.246800000000000      0.091800000000000
C       6.104700000000000     -1.091100000000000     -0.288400000000000
C       7.567200000000000     -0.813100000000000      0.107400000000000
C      -7.463100000000000     -0.668800000000000     -0.164200000000000
C       7.993100000000000      0.558700000000000     -0.424200000000000
C       8.526400000000001     -1.886800000000000     -0.406900000000000
H      -1.226100000000000     -0.562000000000000      1.713700000000000
H       1.083200000000000      0.443500000000000     -1.184400000000000
H      -2.792800000000000      1.122200000000000      1.040700000000000
H      -0.877500000000000     -1.206700000000000     -1.227500000000000
H      -1.033200000000000     -2.300400000000000      0.156900000000000
H       1.154800000000000     -1.658900000000000      1.007600000000000
H       1.384800000000000     -1.881700000000000     -0.746000000000000
H       0.381100000000000      2.843400000000000     -0.336900000000000
H      -1.077900000000000      2.802000000000000      0.608900000000000
H       2.661600000000000      0.600600000000000      1.417400000000000
H      -3.389000000000000      1.727900000000000     -1.147100000000000
H      -2.611800000000000      0.347200000000000     -1.895000000000000
H      -0.648700000000000      1.444100000000000     -2.084800000000000
H      -1.581700000000000      2.886300000000000     -1.775100000000000
H       1.107300000000000      2.088700000000000      2.142400000000000
H       0.763800000000000      0.419700000000000      2.652100000000000
H      -0.513100000000000      1.633200000000000      2.649500000000000
H      -3.583000000000000     -1.210100000000000      1.304800000000000
H      -3.390100000000000     -1.487500000000000     -0.420900000000000
H       3.413900000000000     -1.441500000000000      0.317200000000000
H       3.555400000000000     -0.593700000000000     -1.223700000000000
H       2.930200000000000      1.983100000000000     -1.310800000000000
H       2.287900000000000      2.729400000000000      0.166800000000000
H       3.940200000000000      2.283900000000000      0.114400000000000
H      -5.240100000000000      0.590100000000000      0.841700000000000
H      -5.055100000000000      0.339500000000000     -0.887400000000000
H       5.151000000000000     -0.006500000000000      1.323700000000000
H       5.315000000000000      0.875400000000000     -0.196600000000000
H      -6.105200000000000     -1.747200000000000      1.066100000000000
H      -5.879800000000000     -1.987300000000000     -0.687900000000000
H       6.029300000000000     -1.139300000000000     -1.382900000000000
H       5.836300000000000     -2.090700000000000      0.078000000000000
H       7.636200000000000     -0.795000000000000      1.202300000000000
H       7.831000000000000      0.638000000000000     -1.504400000000000
H       9.057600000000001      0.733100000000000     -0.231600000000000
H       7.447300000000000      1.369100000000000      0.068400000000000
H       8.514900000000001     -1.937600000000000     -1.500900000000000
H       9.553000000000001     -1.680700000000000     -0.086200000000000
H       8.245799999999999     -2.871800000000000     -0.019600000000000
H      -9.308800000000000     -1.270800000000000     -0.343800000000000
