64

O      -2.751700000000000      1.200300000000000     -0.054000000000000
O      -2.333800000000000      2.382400000000000      1.882200000000000
C      -4.483500000000000     -0.607100000000000     -0.117500000000000
C      -3.651700000000000     -1.745700000000000     -0.789700000000000
C      -3.078000000000000     -2.194700000000000      0.578100000000000
C      -3.425800000000000      0.191800000000000      0.705900000000000
C      -5.319800000000000     -1.383000000000000      0.940900000000000
C      -2.433700000000000     -0.904800000000000      1.140100000000000
C      -4.340900000000000     -2.466500000000000      1.425900000000000
C      -5.342500000000000      0.236200000000000     -1.041500000000000
C      -4.455600000000000     -2.837400000000000     -1.522200000000000
C      -2.581700000000000     -1.270300000000000     -1.796000000000000
C      -2.251800000000000      2.245900000000000      0.669200000000000
C      -1.604600000000000      3.232200000000000     -0.277700000000000
C      -0.397600000000000      2.655200000000000     -1.017100000000000
C       0.715000000000000      2.209000000000000     -0.063400000000000
C       1.918900000000000      1.662800000000000     -0.834100000000000
C       3.045800000000000      1.248000000000000      0.114800000000000
C       4.260100000000000      0.733000000000000     -0.660000000000000
C       5.386200000000000      0.216800000000000      0.240900000000000
C       6.595700000000000     -0.393300000000000     -0.476500000000000
C       7.656000000000000     -0.944200000000000      0.479900000000000
C       8.901999999999999     -1.471700000000000     -0.236600000000000
C       9.972899999999999     -1.995100000000000      0.708000000000000
H      -2.387800000000000     -3.041100000000000      0.547400000000000
H      -3.912700000000000      0.649500000000000      1.576500000000000
H      -6.215500000000000     -1.838800000000000      0.504600000000000
H      -5.655900000000000     -0.744600000000000      1.765400000000000
H      -2.338800000000000     -0.945000000000000      2.230900000000000
H      -1.429800000000000     -0.744800000000000      0.733100000000000
H      -4.149100000000000     -2.388700000000000      2.501300000000000
H      -4.743500000000000     -3.467000000000000      1.236000000000000
H      -4.740400000000000      0.746700000000000     -1.799500000000000
H      -5.882800000000000      1.002200000000000     -0.474700000000000
H      -6.085400000000000     -0.375600000000000     -1.563600000000000
H      -3.807000000000000     -3.682300000000000     -1.781200000000000
H      -5.288900000000000     -3.245400000000000     -0.946100000000000
H      -4.880800000000000     -2.445500000000000     -2.453200000000000
H      -1.858500000000000     -0.555800000000000     -1.403200000000000
H      -1.993200000000000     -2.124600000000000     -2.152000000000000
H      -3.050800000000000     -0.807000000000000     -2.671000000000000
H      -2.364800000000000      3.574300000000000     -0.989000000000000
H      -1.300500000000000      4.109300000000000      0.305700000000000
H      -0.710300000000000      1.804700000000000     -1.634700000000000
H      -0.008400000000000      3.418900000000000     -1.701000000000000
H       0.342700000000000      1.433000000000000      0.615600000000000
H       1.028100000000000      3.058700000000000      0.555300000000000
H       1.608700000000000      0.801200000000000     -1.437700000000000
H       2.288100000000000      2.428100000000000     -1.527600000000000
H       2.682900000000000      0.465800000000000      0.792500000000000
H       3.344600000000000      2.101200000000000      0.735400000000000
H       3.943900000000000     -0.079600000000000     -1.326000000000000
H       4.651800000000000      1.532200000000000     -1.301100000000000
H       5.732200000000000      1.041300000000000      0.877300000000000
H       4.969600000000000     -0.540200000000000      0.917800000000000
H       7.047400000000000      0.371900000000000     -1.119600000000000
H       6.253800000000000     -1.199800000000000     -1.136700000000000
H       7.216700000000000     -1.748300000000000      1.082800000000000
H       7.955400000000000     -0.152700000000000      1.178100000000000
H       8.611400000000000     -2.275500000000000     -0.923400000000000
H       9.334099999999999     -0.671500000000000     -0.849300000000000
H       9.588500000000000     -2.822500000000000      1.312700000000000
H      10.316000000000001     -1.205800000000000      1.384300000000000
H      10.835900000000001     -2.358300000000000      0.141400000000000
