64

O      -1.685200000000000      0.067300000000000     -0.031700000000000
O      -3.188400000000000     -1.560100000000000      0.415100000000000
C      -1.318000000000000      1.445800000000000      0.183600000000000
C       0.027100000000000      1.682400000000000     -0.487900000000000
C       1.112500000000000      0.784200000000000      0.106300000000000
C       2.502000000000000      1.035300000000000     -0.488300000000000
C       3.599600000000000      0.187500000000000      0.160000000000000
C       4.987400000000000      0.429100000000000     -0.442700000000000
C      -2.389800000000000      2.366800000000000     -0.375800000000000
C       6.098000000000000     -0.363700000000000      0.252200000000000
C       7.463500000000000     -0.063500000000000     -0.371700000000000
C      -3.966600000000000      0.675700000000000      0.525200000000000
C      -3.713300000000000      1.941000000000000      0.162000000000000
C       8.618600000000001     -0.810300000000000      0.301800000000000
C      -5.287600000000000      0.233200000000000      1.072000000000000
C      -6.288100000000000     -0.169300000000000     -0.011700000000000
C      -2.928300000000000     -0.365600000000000      0.313100000000000
C       9.980300000000000     -0.530200000000000     -0.337900000000000
C      -7.661000000000000     -0.552000000000000      0.550300000000000
C      -8.618499999999999     -0.974500000000000     -0.566100000000000
C      11.103300000000001     -1.242400000000000      0.417500000000000
C      -9.979900000000001     -1.384600000000000     -0.005200000000000
C      12.455700000000000     -0.994800000000000     -0.231900000000000
C     -10.923400000000001     -1.837400000000000     -1.108200000000000
H      -1.213200000000000      1.594600000000000      1.267100000000000
H      -0.047700000000000      1.472000000000000     -1.562300000000000
H       0.318300000000000      2.733700000000000     -0.376600000000000
H       1.158300000000000      0.945100000000000      1.190800000000000
H       0.852400000000000     -0.270300000000000     -0.046100000000000
H       2.756000000000000      2.096400000000000     -0.374100000000000
H       2.474000000000000      0.830300000000000     -1.565500000000000
H       3.344600000000000     -0.874600000000000      0.059400000000000
H       3.631500000000000      0.405300000000000      1.234700000000000
H       5.219600000000000      1.499800000000000     -0.383100000000000
H       4.965800000000000      0.168600000000000     -1.508100000000000
H      -2.181000000000000      3.401900000000000     -0.083900000000000
H      -2.428600000000000      2.326300000000000     -1.470700000000000
H       5.886200000000000     -1.436900000000000      0.178300000000000
H       6.118500000000000     -0.109500000000000      1.318700000000000
H       7.439300000000000     -0.327700000000000     -1.436400000000000
H       7.657700000000000      1.015000000000000     -0.317800000000000
H      -4.484900000000000      2.700000000000000      0.255700000000000
H       8.651300000000001     -0.529300000000000      1.361900000000000
H       8.418600000000000     -1.888500000000000      0.266400000000000
H      -5.148300000000000     -0.594100000000000      1.779200000000000
H      -5.720500000000000      1.048600000000000      1.667300000000000
H      -6.413100000000000      0.658100000000000     -0.722000000000000
H      -5.884400000000000     -1.014600000000000     -0.583400000000000
H       9.967100000000000     -0.860500000000000     -1.383600000000000
H      10.168799999999999      0.550200000000000     -0.342000000000000
H      -7.544700000000000     -1.374000000000000      1.266900000000000
H      -8.083800000000000      0.298700000000000      1.098200000000000
H      -8.184200000000001     -1.813600000000000     -1.123200000000000
H      -8.745900000000001     -0.147400000000000     -1.275100000000000
H      10.909700000000001     -2.321100000000000      0.442300000000000
H      11.133100000000001     -0.893800000000000      1.456400000000000
H     -10.430300000000001     -0.541700000000000      0.531800000000000
H      -9.855399999999999     -2.200100000000000      0.716700000000000
H      12.469400000000000     -1.363500000000000     -1.262600000000000
H      12.694400000000000      0.073400000000000     -0.245600000000000
H      13.243700000000000     -1.512100000000000      0.324400000000000
H     -10.516400000000001     -2.701700000000000     -1.642600000000000
H     -11.094200000000001     -1.034400000000000     -1.832300000000000
H     -11.891000000000000     -2.124700000000000     -0.685000000000000
