64

O       2.778200000000000      1.091600000000000      0.980200000000000
O       3.420200000000000      2.289100000000000     -0.834300000000000
C      -1.214500000000000     -1.686800000000000     -1.236600000000000
C      -0.562000000000000     -2.904900000000000     -0.544800000000000
C       2.751500000000000     -1.371900000000000      0.924100000000000
C      -2.730900000000000     -1.940000000000000     -1.380800000000000
C       0.938000000000000     -2.726100000000000     -0.283400000000000
C       1.251800000000000     -1.542200000000000      0.635500000000000
C      -3.942200000000000      0.310400000000000      0.567300000000000
C      -3.496100000000000     -2.180000000000000     -0.072900000000000
C      -3.383000000000000     -1.067900000000000      0.979600000000000
C      -3.359900000000000      1.446300000000000      1.439700000000000
C       3.011900000000000     -0.105800000000000      1.748200000000000
C      -1.906700000000000      1.844700000000000      1.154500000000000
C      -0.563200000000000     -1.388800000000000     -2.589700000000000
C       3.264800000000000     -2.593300000000000      1.700000000000000
C       3.494000000000000     -1.224600000000000     -0.376600000000000
C      -5.472600000000000      0.353700000000000      0.667100000000000
C      -1.628500000000000      2.408500000000000     -0.243600000000000
C      -0.158800000000000      2.749700000000000     -0.550000000000000
C       3.796900000000000     -0.030500000000000     -0.896600000000000
C       3.334300000000000      1.212500000000000     -0.253900000000000
C      -0.043900000000000      3.298400000000000     -1.975300000000000
C       0.420800000000000      3.758100000000000      0.442100000000000
H      -1.091300000000000     -0.794300000000000     -0.616600000000000
H      -1.037300000000000     -3.100800000000000      0.421700000000000
H      -0.709400000000000     -3.802300000000000     -1.158800000000000
H      -2.886800000000000     -2.812400000000000     -2.029400000000000
H      -3.184800000000000     -1.095400000000000     -1.912600000000000
H       1.463000000000000     -2.645000000000000     -1.239800000000000
H       1.287200000000000     -3.656700000000000      0.177400000000000
H       0.703300000000000     -1.663300000000000      1.579100000000000
H       0.873600000000000     -0.619200000000000      0.182200000000000
H      -3.689600000000000      0.513000000000000     -0.476400000000000
H      -4.554700000000000     -2.322000000000000     -0.323100000000000
H      -3.181200000000000     -3.127800000000000      0.377500000000000
H      -2.330800000000000     -0.977900000000000      1.268100000000000
H      -3.901800000000000     -1.403200000000000      1.887500000000000
H      -3.446300000000000      1.167300000000000      2.497900000000000
H      -3.973100000000000      2.348300000000000      1.312500000000000
H      -1.247900000000000      0.987200000000000      1.331200000000000
H      -1.630100000000000      2.598900000000000      1.900900000000000
H       2.350100000000000     -0.065800000000000      2.621000000000000
H       4.042000000000000     -0.059600000000000      2.124500000000000
H      -0.569400000000000     -2.272500000000000     -3.236300000000000
H       0.471000000000000     -1.051400000000000     -2.474000000000000
H      -1.104000000000000     -0.589200000000000     -3.107600000000000
H       2.675000000000000     -2.761600000000000      2.608300000000000
H       4.307500000000000     -2.451400000000000      2.010100000000000
H       3.242900000000000     -3.512900000000000      1.106200000000000
H       3.803400000000000     -2.118700000000000     -0.911700000000000
H      -5.807900000000000      0.190700000000000      1.697000000000000
H      -5.859100000000000      1.322800000000000      0.333700000000000
H      -5.928500000000000     -0.415600000000000      0.036200000000000
H      -2.247100000000000      3.304500000000000     -0.384700000000000
H      -1.961700000000000      1.684800000000000     -0.995900000000000
H       0.429000000000000      1.826700000000000     -0.492400000000000
H       4.326500000000000      0.051300000000000     -1.838700000000000
H      -0.612900000000000      4.227000000000000     -2.092000000000000
H      -0.423500000000000      2.572900000000000     -2.702600000000000
H       1.000900000000000      3.506900000000000     -2.228700000000000
H      -0.196900000000000      4.660800000000000      0.497300000000000
H       0.492300000000000      3.329600000000000      1.446500000000000
H       1.431300000000000      4.060200000000000      0.147500000000000
