64

O       5.766200000000000     -1.938900000000000      0.048400000000000
N       7.177400000000000     -0.133100000000000     -0.332700000000000
C       7.402200000000000      1.285100000000000     -0.640200000000000
C       8.395300000000001     -0.941200000000000     -0.240900000000000
C       8.353100000000000      1.915400000000000      0.375000000000000
C       9.363799999999999     -0.354100000000000      0.782200000000000
C       9.651300000000001      1.117700000000000      0.490000000000000
C      -0.338700000000000      0.312500000000000     -0.122100000000000
C      -1.614700000000000     -0.507400000000000      0.075100000000000
C       0.910400000000000     -0.557300000000000      0.028500000000000
C      -2.864300000000000      0.355400000000000     -0.108100000000000
C       2.186000000000000      0.255900000000000     -0.201900000000000
C      -4.139800000000000     -0.456700000000000      0.122200000000000
C       3.434400000000000     -0.623900000000000     -0.083600000000000
C       4.725700000000000      0.164400000000000     -0.278400000000000
C      -5.390100000000000      0.397700000000000     -0.093700000000000
C       5.930500000000000     -0.736200000000000     -0.172400000000000
C      -6.665700000000000     -0.422800000000000      0.104000000000000
C      -7.915800000000000      0.439400000000000     -0.079200000000000
C      -9.191700000000001     -0.373800000000000      0.151300000000000
C     -10.439600000000000      0.499100000000000      0.000400000000000
C     -11.746300000000000     -0.272300000000000      0.197500000000000
C     -12.989800000000001      0.575400000000000     -0.021400000000000
H       7.835000000000000      1.331400000000000     -1.646700000000000
H       6.471900000000000      1.854900000000000     -0.664400000000000
H       8.158300000000001     -1.975600000000000      0.026800000000000
H       8.852800000000000     -0.957100000000000     -1.237300000000000
H       8.575699999999999      2.948300000000000      0.085900000000000
H       7.864900000000000      1.950300000000000      1.357000000000000
H       8.930400000000001     -0.442700000000000      1.786200000000000
H      10.299200000000001     -0.924200000000000      0.780600000000000
H      10.216500000000000      1.201400000000000     -0.446200000000000
H      10.278000000000000      1.539200000000000      1.283700000000000
H      -0.308600000000000      1.129700000000000      0.608700000000000
H      -0.348400000000000      0.770200000000000     -1.118900000000000
H      -1.634600000000000     -1.337100000000000     -0.641900000000000
H      -1.614900000000000     -0.947900000000000      1.079500000000000
H       0.931700000000000     -1.000700000000000      1.031400000000000
H       0.869400000000000     -1.384800000000000     -0.690300000000000
H      -2.873000000000000      0.776400000000000     -1.120900000000000
H      -2.836100000000000      1.198800000000000      0.592400000000000
H       2.157300000000000      0.715900000000000     -1.197000000000000
H       2.239800000000000      1.070400000000000      0.530400000000000
H      -4.140700000000000     -0.860300000000000      1.142000000000000
H      -4.158100000000000     -1.312100000000000     -0.564100000000000
H       3.375700000000000     -1.429600000000000     -0.826800000000000
H       3.442300000000000     -1.105500000000000      0.902800000000000
H       4.718000000000000      0.632200000000000     -1.269000000000000
H       4.795500000000000      0.944000000000000      0.488100000000000
H      -5.379300000000000      0.818300000000000     -1.106600000000000
H      -5.381600000000000      1.241500000000000      0.607000000000000
H      -6.666800000000000     -0.860600000000000      1.109700000000000
H      -6.683900000000000     -1.254500000000000     -0.610700000000000
H      -7.926100000000000      0.862900000000000     -1.090800000000000
H      -7.886500000000000      1.281000000000000      0.623500000000000
H      -9.174600000000000     -0.814000000000000      1.155600000000000
H      -9.234100000000000     -1.202900000000000     -0.565200000000000
H     -10.397500000000001      1.323700000000000      0.722800000000000
H     -10.441000000000001      0.953500000000000     -0.998400000000000
H     -11.772399999999999     -0.688500000000000      1.211600000000000
H     -11.774500000000000     -1.121900000000000     -0.495200000000000
H     -13.015400000000000      1.417500000000000      0.677300000000000
H     -13.891700000000000     -0.024900000000000      0.133900000000000
H     -13.016299999999999      0.973700000000000     -1.040500000000000
