64

O       5.630900000000000     -1.313000000000000      1.543700000000000
O       7.068000000000000      3.103900000000000      0.280900000000000
C       5.887400000000000     -0.479200000000000      0.407900000000000
C       4.605600000000000     -0.403000000000000     -0.435800000000000
C       3.357800000000000     -0.335000000000000      0.446000000000000
C       2.087300000000000     -0.226700000000000     -0.400300000000000
C       6.236000000000000      0.924000000000000      0.978200000000000
C       0.800900000000000     -0.226900000000000      0.432000000000000
C      -0.470600000000000     -0.194600000000000     -0.420300000000000
C       7.028300000000000     -1.069400000000000     -0.421500000000000
C      -1.756900000000000     -0.182800000000000      0.412000000000000
C      -3.029400000000000     -0.224100000000000     -0.436900000000000
C      -4.282200000000000     -0.178800000000000      0.441100000000000
C      -5.556700000000000     -0.186700000000000     -0.406500000000000
C      -6.806400000000000     -0.102900000000000      0.472800000000000
C      -8.116500000000000     -0.118300000000000     -0.323700000000000
C       7.126800000000000      1.741800000000000      0.087500000000000
C      -9.360799999999999      0.041200000000000      0.557400000000000
C       7.958900000000000     -0.268600000000000     -0.974700000000000
C     -10.708100000000000     -0.025900000000000     -0.188900000000000
C       7.072000000000000     -2.557600000000000     -0.630600000000000
C       7.919200000000000      1.165800000000000     -0.828100000000000
C     -10.787100000000001      0.976400000000000     -1.340300000000000
C     -11.904400000000001      0.140200000000000      0.748200000000000
H       4.641800000000000      0.449900000000000     -1.125200000000000
H       4.508100000000000     -1.298800000000000     -1.062300000000000
H       3.398700000000000      0.519900000000000      1.128400000000000
H       3.276900000000000     -1.238300000000000      1.062100000000000
H       2.126900000000000      0.690600000000000     -1.000700000000000
H       2.052400000000000     -1.066000000000000     -1.106100000000000
H       6.742200000000000      0.821300000000000      1.948400000000000
H       5.324400000000000      1.492200000000000      1.194600000000000
H       0.808500000000000      0.639100000000000      1.105200000000000
H       0.782500000000000     -1.121600000000000      1.066500000000000
H      -0.479300000000000     -1.068800000000000     -1.082900000000000
H      -0.452000000000000      0.692200000000000     -1.065700000000000
H      -1.766100000000000      0.716800000000000      1.039900000000000
H      -1.751700000000000     -1.043600000000000      1.092300000000000
H      -3.036400000000000     -1.136600000000000     -1.045000000000000
H      -3.033200000000000      0.626700000000000     -1.128900000000000
H      -4.286700000000000     -1.038800000000000      1.121600000000000
H      -4.261500000000000      0.725200000000000      1.062000000000000
H      -5.593100000000000     -1.101700000000000     -1.009800000000000
H      -5.543300000000000      0.660400000000000     -1.102700000000000
H      -6.810000000000000     -0.941000000000000      1.180700000000000
H      -6.763200000000000      0.816000000000000      1.070800000000000
H      -8.186800000000000     -1.057100000000000     -0.886100000000000
H      -8.077100000000000      0.694600000000000     -1.057300000000000
H      -9.294600000000001      0.999800000000000      1.088500000000000
H      -9.349399999999999     -0.739700000000000      1.328600000000000
H       8.764200000000001     -0.674400000000000     -1.579000000000000
H     -10.786700000000000     -1.028700000000000     -0.630200000000000
H       6.460800000000000     -1.411500000000000      2.041300000000000
H       7.209700000000000     -3.074900000000000      0.324100000000000
H       7.897700000000000     -2.855500000000000     -1.285900000000000
H       6.146000000000000     -2.915700000000000     -1.089600000000000
H       8.568099999999999      1.754800000000000     -1.467100000000000
H     -10.606000000000000      1.997400000000000     -0.988100000000000
H     -10.058400000000001      0.747300000000000     -2.123700000000000
H     -11.776999999999999      0.952500000000000     -1.809100000000000
H     -11.904800000000000      1.131400000000000      1.213900000000000
H     -12.847799999999999      0.018600000000000      0.205500000000000
H     -11.878200000000000     -0.609200000000000      1.546100000000000
H       7.681300000000000      3.524200000000000     -0.346500000000000
