64

O       8.501099999999999      0.719900000000000      0.297200000000000
O       6.462100000000000      1.633200000000000     -0.423200000000000
C       7.103200000000000      0.451200000000000      0.091800000000000
C       6.478000000000000      0.067200000000000      1.433900000000000
C       6.951300000000000     -0.683700000000000     -0.930300000000000
C       4.999800000000000     -0.304300000000000      1.292400000000000
C       4.715500000000000     -1.185800000000000      0.102600000000000
C       5.611600000000000     -1.361000000000000     -0.883900000000000
C       3.372200000000000     -1.853200000000000      0.081200000000000
C       2.193000000000000     -0.877100000000000      0.103300000000000
C       8.737200000000000      1.953100000000000     -0.380100000000000
C       7.423800000000000      2.672900000000000     -0.252700000000000
C       0.829500000000000     -1.570600000000000      0.002200000000000
C      -0.309600000000000     -0.547200000000000     -0.005800000000000
C      -1.701800000000000     -1.181500000000000     -0.095700000000000
C      -2.833300000000000     -0.153500000000000     -0.178600000000000
C      -4.229000000000000     -0.786200000000000     -0.196400000000000
C      -5.364900000000000      0.239500000000000     -0.201900000000000
C      -6.732200000000000     -0.447900000000000     -0.143300000000000
C      -7.866800000000000      0.578600000000000     -0.110200000000000
C      -9.260500000000000     -0.052000000000000     -0.020400000000000
C     -10.391000000000000      0.979100000000000      0.035100000000000
C     -11.782400000000001      0.346500000000000      0.127400000000000
C     -12.906800000000000      1.362700000000000      0.255300000000000
H       7.033600000000000     -0.773900000000000      1.869700000000000
H       6.572400000000000      0.893800000000000      2.149300000000000
H       7.105200000000000     -0.286900000000000     -1.941600000000000
H       7.726700000000000     -1.443400000000000     -0.770700000000000
H       4.680800000000000     -0.805100000000000      2.214400000000000
H       4.409100000000000      0.615500000000000      1.203100000000000
H       5.376700000000000     -2.018600000000000     -1.716900000000000
H       3.280000000000000     -2.493700000000000     -0.805500000000000
H       3.300400000000000     -2.525500000000000      0.945700000000000
H       2.297100000000000     -0.167000000000000     -0.727300000000000
H       2.215300000000000     -0.287300000000000      1.028000000000000
H       9.573100000000000      2.490700000000000      0.074000000000000
H       8.974900000000000      1.728100000000000     -1.425500000000000
H       7.283500000000000      3.456700000000000     -1.000900000000000
H       7.291900000000000      3.098400000000000      0.748000000000000
H       0.702900000000000     -2.257600000000000      0.847300000000000
H       0.788600000000000     -2.171100000000000     -0.914300000000000
H      -0.255000000000000      0.065000000000000      0.902900000000000
H      -0.173300000000000      0.134300000000000     -0.854800000000000
H      -1.857600000000000     -1.823200000000000      0.780200000000000
H      -1.746400000000000     -1.832800000000000     -0.977300000000000
H      -2.760800000000000      0.525900000000000      0.679700000000000
H      -2.702700000000000      0.459000000000000     -1.079100000000000
H      -4.334900000000000     -1.433100000000000      0.683400000000000
H      -4.319000000000000     -1.433700000000000     -1.077300000000000
H      -5.254400000000000      0.910000000000000      0.658900000000000
H      -5.297100000000000      0.857500000000000     -1.105100000000000
H      -6.788800000000000     -1.081400000000000      0.750100000000000
H      -6.855000000000000     -1.103300000000000     -1.013900000000000
H      -7.723500000000000      1.246600000000000      0.748400000000000
H      -7.814500000000000      1.204600000000000     -1.009700000000000
H      -9.309699999999999     -0.687400000000000      0.872500000000000
H      -9.413700000000000     -0.708800000000000     -0.885400000000000
H     -10.344200000000001      1.617300000000000     -0.855700000000000
H     -10.235799999999999      1.633400000000000      0.902000000000000
H     -11.818099999999999     -0.326200000000000      0.992800000000000
H     -11.959400000000000     -0.270400000000000     -0.761600000000000
H     -12.926200000000000      2.033100000000000     -0.609700000000000
H     -12.783300000000001      1.969700000000000      1.157700000000000
H     -13.874200000000000      0.854500000000000      0.315500000000000
