64

O      -6.405200000000000     -0.407900000000000      0.269700000000000
O      -7.616300000000000     -1.340200000000000     -1.462600000000000
C       3.515700000000000     -0.372200000000000     -0.234100000000000
C       3.698100000000000     -1.692100000000000      0.595500000000000
C       4.811300000000000      0.202400000000000     -0.879600000000000
C       4.562900000000000     -2.699400000000000     -0.203900000000000
C       5.608500000000000     -0.893600000000000     -1.600500000000000
C       2.718900000000000      0.721400000000000      0.492400000000000
C       5.869600000000000     -2.110000000000000     -0.723300000000000
C       4.317400000000000     -1.472200000000000      1.989900000000000
C       2.318300000000000     -2.358000000000000      0.826100000000000
C       2.267400000000000      1.862000000000000     -0.425100000000000
C       5.719700000000000      1.021600000000000      0.043000000000000
C       1.388200000000000      2.944800000000000      0.233000000000000
C       0.173100000000000      2.391700000000000      1.005900000000000
C       0.959900000000000      3.970900000000000     -0.822600000000000
C      -0.840700000000000      1.614300000000000      0.159100000000000
C      -1.963600000000000      1.045700000000000      1.033300000000000
C      -2.996800000000000      0.304500000000000      0.215900000000000
C      -2.488600000000000     -0.912300000000000     -0.511600000000000
C      -4.294000000000000      0.658000000000000      0.131000000000000
C      -5.374300000000000     -0.036000000000000     -0.637100000000000
C      -7.474800000000000     -1.057700000000000     -0.280600000000000
C      -8.474900000000000     -1.386000000000000      0.786400000000000
H       2.894700000000000     -0.668900000000000     -1.095300000000000
H       4.502000000000000      0.895300000000000     -1.674000000000000
H       4.788100000000000     -3.579500000000000      0.412000000000000
H       3.988300000000000     -3.069500000000000     -1.064100000000000
H       5.045500000000000     -1.214400000000000     -2.487100000000000
H       6.560600000000000     -0.495400000000000     -1.970900000000000
H       3.281600000000000      1.132300000000000      1.337100000000000
H       1.823700000000000      0.265600000000000      0.921500000000000
H       6.532000000000000     -1.848000000000000      0.108200000000000
H       6.397100000000000     -2.870300000000000     -1.311400000000000
H       3.725600000000000     -0.774800000000000      2.591400000000000
H       4.358300000000000     -2.416000000000000      2.547600000000000
H       5.339100000000000     -1.095900000000000      1.947200000000000
H       2.434500000000000     -3.356700000000000      1.264000000000000
H       1.770000000000000     -2.476500000000000     -0.115200000000000
H       1.689400000000000     -1.783500000000000      1.513200000000000
H       1.733600000000000      1.434400000000000     -1.283400000000000
H       3.145500000000000      2.371100000000000     -0.838400000000000
H       5.192500000000000      1.861900000000000      0.501900000000000
H       6.545100000000000      1.453400000000000     -0.535600000000000
H       6.172000000000000      0.425500000000000      0.835200000000000
H       2.013000000000000      3.472900000000000      0.966200000000000
H       0.519900000000000      1.765000000000000      1.835900000000000
H      -0.346300000000000      3.236300000000000      1.478700000000000
H       0.401900000000000      3.505900000000000     -1.641300000000000
H       1.837400000000000      4.461800000000000     -1.257600000000000
H       0.331600000000000      4.749500000000000     -0.377600000000000
H      -0.332100000000000      0.799600000000000     -0.367100000000000
H      -1.273900000000000      2.271700000000000     -0.603600000000000
H      -1.546600000000000      0.364400000000000      1.785300000000000
H      -2.439800000000000      1.864400000000000      1.587500000000000
H      -2.183600000000000     -0.649900000000000     -1.529400000000000
H      -1.617200000000000     -1.332400000000000      0.004000000000000
H      -3.219400000000000     -1.724300000000000     -0.552100000000000
H      -4.614400000000000      1.544900000000000      0.675700000000000
H      -5.028800000000000     -0.916500000000000     -1.183900000000000
H      -5.782900000000000      0.673800000000000     -1.366600000000000
H      -8.019700000000000     -2.043900000000000      1.530900000000000
H      -9.327199999999999     -1.904400000000000      0.337700000000000
H      -8.833800000000000     -0.465500000000000      1.253400000000000
