64

O       4.577600000000000     -0.370900000000000      0.698800000000000
O       3.199700000000000      1.275500000000000     -0.313100000000000
C       5.576500000000000      1.330100000000000     -0.730500000000000
C       4.469300000000000      0.986900000000000      0.265300000000000
C       5.602000000000000      0.344200000000000     -1.895200000000000
C       5.628600000000000     -1.087900000000000     -1.375900000000000
C       4.509400000000000     -1.314900000000000     -0.369600000000000
C      -1.577800000000000     -2.817800000000000     -0.765800000000000
C      -1.778600000000000     -2.128800000000000     -2.119200000000000
C       0.871500000000000      1.742200000000000     -0.001400000000000
C      -0.261800000000000      1.890000000000000      1.012800000000000
C      -1.137500000000000     -1.864300000000000      0.348300000000000
C       2.193300000000000      1.415300000000000      0.680400000000000
C      -2.813700000000000     -0.999800000000000     -2.148500000000000
C      -1.605700000000000      2.253500000000000      0.374300000000000
C      -0.963900000000000     -2.611100000000000      1.674000000000000
C      -4.210700000000000     -1.441900000000000     -1.697500000000000
C      -2.721600000000000      2.476000000000000      1.397000000000000
C      -0.552600000000000     -1.701800000000000      2.833900000000000
C      -5.230800000000000     -0.300600000000000     -1.727100000000000
C      -4.044400000000000      2.824500000000000      0.712800000000000
C      -0.403700000000000     -2.438200000000000      4.155700000000000
C      -4.834700000000000      0.816300000000000     -0.858600000000000
C      -4.490600000000000      1.723500000000000     -0.150900000000000
H       5.445200000000000      2.346800000000000     -1.117000000000000
H       6.545800000000000      1.283200000000000     -0.218800000000000
H       4.616700000000000      1.622000000000000      1.147700000000000
H       4.714600000000000      0.490600000000000     -2.523000000000000
H       6.477100000000000      0.531900000000000     -2.527200000000000
H       6.593900000000000     -1.265300000000000     -0.886000000000000
H       5.543700000000000     -1.796200000000000     -2.206600000000000
H       4.600500000000000     -2.315000000000000      0.066200000000000
H       3.525300000000000     -1.257100000000000     -0.849000000000000
H      -0.814200000000000     -3.596300000000000     -0.889700000000000
H      -2.496000000000000     -3.338900000000000     -0.471900000000000
H      -2.067200000000000     -2.891000000000000     -2.853900000000000
H      -0.816400000000000     -1.724700000000000     -2.457800000000000
H       0.629200000000000      0.956800000000000     -0.727900000000000
H       0.981700000000000      2.665400000000000     -0.583700000000000
H       0.007300000000000      2.667200000000000      1.738900000000000
H      -0.372200000000000      0.958400000000000      1.576500000000000
H      -1.883100000000000     -1.074500000000000      0.488400000000000
H      -0.194100000000000     -1.381000000000000      0.069900000000000
H       2.463000000000000      2.223800000000000      1.370100000000000
H       2.102000000000000      0.481300000000000      1.246900000000000
H      -2.448800000000000     -0.174500000000000     -1.537300000000000
H      -2.875800000000000     -0.616100000000000     -3.174500000000000
H      -1.871400000000000      1.458600000000000     -0.323700000000000
H      -1.480700000000000      3.166500000000000     -0.221500000000000
H      -0.209500000000000     -3.398000000000000      1.550400000000000
H      -1.905200000000000     -3.112600000000000      1.931600000000000
H      -4.563900000000000     -2.254400000000000     -2.343500000000000
H      -4.166700000000000     -1.838500000000000     -0.676600000000000
H      -2.841900000000000      1.573900000000000      2.010000000000000
H      -2.442200000000000      3.291900000000000      2.074000000000000
H      -1.299500000000000     -0.908500000000000      2.956000000000000
H       0.398700000000000     -1.213400000000000      2.592300000000000
H      -5.350100000000000      0.058000000000000     -2.756000000000000
H      -6.206800000000000     -0.684500000000000     -1.408900000000000
H      -3.932900000000000      3.742100000000000      0.124100000000000
H      -4.803600000000000      3.023100000000000      1.477700000000000
H       0.361100000000000     -3.217900000000000      4.083800000000000
H      -1.347600000000000     -2.908700000000000      4.448900000000000
H      -0.108700000000000     -1.742800000000000      4.947500000000000
