64

O       6.720100000000000     -1.857900000000000      0.268800000000000
N       8.060800000000000      0.004900000000000      0.004500000000000
C       8.275000000000000      1.429800000000000     -0.227700000000000
C       9.327400000000001     -0.694600000000000      0.162100000000000
C       9.751600000000000      1.645300000000000      0.072400000000000
C      10.375000000000000      0.306100000000000     -0.300400000000000
C      -7.125400000000000      0.378300000000000     -0.104300000000000
C      -5.865500000000000     -0.472200000000000      0.077200000000000
C      -8.392700000000000     -0.469100000000000      0.048400000000000
C      -4.598500000000000      0.377700000000000     -0.042900000000000
C      -9.700400000000000      0.315300000000000     -0.197900000000000
C      -3.340600000000000     -0.480500000000000      0.105500000000000
C      -2.040500000000000      0.324500000000000      0.016600000000000
C      -0.745700000000000     -0.486100000000000      0.137100000000000
C       0.552900000000000      0.311500000000000     -0.020900000000000
C       1.808400000000000     -0.562700000000000      0.030100000000000
C       3.106700000000000      0.233900000000000     -0.134400000000000
C       4.365400000000000     -0.625700000000000     -0.006400000000000
C       5.627000000000000      0.225000000000000     -0.104800000000000
C       6.843500000000000     -0.647900000000000      0.072400000000000
C     -10.888100000000000     -0.670000000000000     -0.179400000000000
C      -9.887300000000000      1.439500000000000      0.825400000000000
C     -12.229100000000001     -0.025100000000000     -0.501600000000000
H       7.627000000000000      2.038900000000000      0.407700000000000
H       8.044600000000001      1.636000000000000     -1.278500000000000
H       9.334899999999999     -1.623800000000000     -0.415400000000000
H       9.443600000000000     -0.937200000000000      1.224100000000000
H      10.176500000000001      2.485600000000000     -0.483400000000000
H       9.893599999999999      1.833800000000000      1.143400000000000
H      10.498699999999999      0.245600000000000     -1.388400000000000
H      11.350000000000000      0.142400000000000      0.166200000000000
H      -7.114000000000000      1.181100000000000      0.640400000000000
H      -7.113800000000000      0.849000000000000     -1.094500000000000
H      -5.888200000000000     -0.959400000000000      1.059600000000000
H      -5.848500000000000     -1.267100000000000     -0.678200000000000
H      -8.414099999999999     -0.912600000000000      1.052200000000000
H      -8.340400000000001     -1.303900000000000     -0.662400000000000
H      -4.603400000000000      1.158000000000000      0.727700000000000
H      -4.582700000000000      0.883300000000000     -1.015900000000000
H      -9.647100000000000      0.768800000000000     -1.196300000000000
H      -3.368000000000000     -1.003400000000000      1.069500000000000
H      -3.335000000000000     -1.253000000000000     -0.673300000000000
H      -2.026900000000000      0.860100000000000     -0.941200000000000
H      -2.045000000000000      1.093200000000000      0.799700000000000
H      -0.763500000000000     -1.278900000000000     -0.621600000000000
H      -0.736200000000000     -0.991100000000000      1.111100000000000
H       0.528800000000000      0.848600000000000     -0.977000000000000
H       0.604300000000000      1.071400000000000      0.768400000000000
H       1.753300000000000     -1.325100000000000     -0.756700000000000
H       1.832200000000000     -1.096800000000000      0.988000000000000
H       3.103000000000000      0.731500000000000     -1.112100000000000
H       3.134000000000000      1.026300000000000      0.624100000000000
H       4.362500000000000     -1.392700000000000     -0.791000000000000
H       4.342200000000000     -1.153000000000000      0.955900000000000
H       5.675700000000000      0.719000000000000     -1.081200000000000
H       5.619200000000000      0.989000000000000      0.679900000000000
H     -10.706000000000000     -1.462000000000000     -0.916600000000000
H     -10.954599999999999     -1.160300000000000      0.799700000000000
H      -9.943500000000000      1.041200000000000      1.844000000000000
H      -9.065099999999999      2.159600000000000      0.786300000000000
H     -10.800700000000001      2.009700000000000      0.632100000000000
H     -12.555400000000001      0.649200000000000      0.295300000000000
H     -12.180899999999999      0.537500000000000     -1.439100000000000
H     -12.997900000000000     -0.797200000000000     -0.609800000000000
