65

O       3.878000000000000     -2.195100000000000      0.056100000000000
N       3.328000000000000      0.028100000000000      0.075700000000000
C       3.887100000000000     -0.299800000000000      1.402500000000000
C       0.466900000000000     -1.882300000000000     -1.051800000000000
C       1.673700000000000     -2.363600000000000     -1.860100000000000
C      -0.702000000000000     -2.870500000000000     -1.059000000000000
C       2.809400000000000     -1.346800000000000     -1.907900000000000
C       4.517900000000000     -1.675100000000000      1.214700000000000
C      -1.887100000000000     -2.324300000000000     -0.259200000000000
C       3.341300000000000     -1.109100000000000     -0.543000000000000
C      -3.105700000000000     -3.255000000000000     -0.245900000000000
C       4.915300000000000      0.755200000000000      1.796200000000000
C       2.736700000000000     -0.332800000000000      2.413000000000000
C      -2.109600000000000      2.998500000000000      0.232100000000000
C      -3.125000000000000      1.889800000000000     -0.056600000000000
C      -0.847000000000000      2.828800000000000     -0.615400000000000
C      -4.405000000000000      2.081700000000000      0.762800000000000
C      -4.309900000000000     -2.768300000000000      0.568900000000000
C       0.195100000000000      3.926900000000000     -0.381000000000000
C      -5.438500000000000      0.974600000000000      0.529500000000000
C      -4.823300000000000     -1.427400000000000      0.130100000000000
C      -4.944300000000000     -0.376900000000000      0.955500000000000
C       1.488000000000000      3.797900000000000     -1.190200000000000
C       2.459900000000000      4.945500000000000     -0.967000000000000
H       0.127300000000000     -0.920100000000000     -1.455700000000000
H       0.764200000000000     -1.701300000000000     -0.012400000000000
H       2.030600000000000     -3.314200000000000     -1.445000000000000
H       1.354100000000000     -2.572300000000000     -2.888500000000000
H      -0.378900000000000     -3.827700000000000     -0.633000000000000
H      -1.014400000000000     -3.063200000000000     -2.092200000000000
H       2.461800000000000     -0.399500000000000     -2.334400000000000
H       3.624600000000000     -1.716600000000000     -2.538900000000000
H       4.348200000000000     -2.345400000000000      2.063200000000000
H       5.594800000000000     -1.631100000000000      1.016700000000000
H      -1.571700000000000     -2.136600000000000      0.774700000000000
H      -2.175500000000000     -1.355700000000000     -0.683800000000000
H      -3.425900000000000     -3.426700000000000     -1.282000000000000
H      -2.800400000000000     -4.233300000000000      0.146300000000000
H       5.713000000000000      0.829600000000000      1.048300000000000
H       5.375800000000000      0.518500000000000      2.761200000000000
H       4.453500000000000      1.746200000000000      1.872300000000000
H       3.100800000000000     -0.574900000000000      3.417300000000000
H       1.983700000000000     -1.080400000000000      2.139300000000000
H       2.227500000000000      0.636600000000000      2.460300000000000
H      -2.561200000000000      3.975300000000000      0.021400000000000
H      -1.842100000000000      2.987700000000000      1.295500000000000
H      -2.663900000000000      0.924400000000000      0.178400000000000
H      -3.372900000000000      1.880900000000000     -1.124900000000000
H      -0.392200000000000      1.854200000000000     -0.397800000000000
H      -1.120000000000000      2.819800000000000     -1.677900000000000
H      -4.154100000000000      2.128900000000000      1.830200000000000
H      -4.860200000000000      3.045400000000000      0.502900000000000
H      -4.034400000000000     -2.749000000000000      1.630500000000000
H      -5.121500000000000     -3.498800000000000      0.468800000000000
H      -0.265200000000000      4.897200000000000     -0.606900000000000
H       0.451000000000000      3.947700000000000      0.686000000000000
H      -5.733000000000000      0.968800000000000     -0.527000000000000
H      -6.342000000000000      1.206700000000000      1.105700000000000
H      -5.106300000000000     -1.324800000000000     -0.914300000000000
H       1.241900000000000      3.745500000000000     -2.257400000000000
H       1.982900000000000      2.854200000000000     -0.931900000000000
H      -4.668800000000000     -0.486300000000000      2.001700000000000
H       3.363500000000000      4.800900000000000     -1.567300000000000
H       2.755500000000000      5.006900000000000      0.085100000000000
H       2.009000000000000      5.900800000000000     -1.253700000000000
