65

O       5.245800000000000     -1.641700000000000      0.369900000000000
N       4.966700000000000      0.528400000000000     -0.307200000000000
C       6.210000000000000      0.470400000000000      0.487300000000000
C      -0.376700000000000     -1.674000000000000      0.034100000000000
C       0.877600000000000     -1.647600000000000     -0.844600000000000
C      -1.619400000000000     -2.189000000000000     -0.694900000000000
C       2.158000000000000     -1.161100000000000     -0.160900000000000
C      -2.846100000000000     -2.172100000000000      0.221600000000000
C       3.383600000000000     -1.207100000000000     -1.066300000000000
C       6.160900000000000     -0.895700000000000      1.162500000000000
C      -4.096600000000000     -2.651600000000000     -0.518200000000000
C       4.567500000000000     -0.703100000000000     -0.326800000000000
C      -5.364100000000000     -2.626000000000000      0.344000000000000
C       7.398100000000000      0.590500000000000     -0.471800000000000
C       6.221000000000000      1.611600000000000      1.498600000000000
C      -5.817900000000000     -1.244500000000000      0.828000000000000
C      -3.868800000000000      1.843000000000000      1.124100000000000
C      -3.282200000000000      2.629400000000000     -0.052300000000000
C      -5.395100000000000      1.726000000000000      1.065500000000000
C      -6.071200000000000     -0.274000000000000     -0.288900000000000
C      -1.755700000000000      2.694700000000000      0.031500000000000
C      -5.882800000000000      1.049800000000000     -0.183100000000000
C      -1.165600000000000      3.453100000000000     -1.157100000000000
C       0.353000000000000      3.490900000000000     -1.095100000000000
H      -0.566700000000000     -0.662100000000000      0.411100000000000
H      -0.184000000000000     -2.305700000000000      0.910100000000000
H       0.682500000000000     -1.011200000000000     -1.717100000000000
H       1.051700000000000     -2.659300000000000     -1.232900000000000
H      -1.439400000000000     -3.209300000000000     -1.053800000000000
H      -1.809100000000000     -1.563600000000000     -1.575600000000000
H       2.341100000000000     -1.772400000000000      0.732100000000000
H       2.003200000000000     -0.135600000000000      0.198600000000000
H      -2.666600000000000     -2.812600000000000      1.093300000000000
H      -2.994300000000000     -1.157000000000000      0.592400000000000
H       3.230000000000000     -0.584500000000000     -1.954700000000000
H       3.578000000000000     -2.229100000000000     -1.409500000000000
H       7.131600000000000     -1.401300000000000      1.181500000000000
H       5.769800000000000     -0.856200000000000      2.185400000000000
H      -4.247200000000000     -2.050600000000000     -1.422600000000000
H      -3.933600000000000     -3.682400000000000     -0.857500000000000
H      -5.215500000000000     -3.271800000000000      1.218600000000000
H      -6.177900000000000     -3.081200000000000     -0.235700000000000
H       7.367700000000000      1.540000000000000     -1.018200000000000
H       7.392500000000000     -0.212300000000000     -1.218100000000000
H       8.348900000000000      0.540600000000000      0.069800000000000
H       6.201000000000000      2.584800000000000      0.995200000000000
H       7.115300000000000      1.572500000000000      2.129700000000000
H       5.342100000000000      1.570300000000000      2.152100000000000
H      -6.757100000000000     -1.376700000000000      1.379700000000000
H      -5.082900000000000     -0.870200000000000      1.546000000000000
H      -3.597500000000000      2.346500000000000      2.060500000000000
H      -3.415500000000000      0.850000000000000      1.167500000000000
H      -3.697000000000000      3.644500000000000     -0.059800000000000
H      -3.560200000000000      2.157400000000000     -1.001500000000000
H      -5.837900000000000      2.729500000000000      1.102600000000000
H      -5.760800000000000      1.217700000000000      1.964900000000000
H      -6.461200000000000     -0.666200000000000     -1.224700000000000
H      -1.458100000000000      3.184500000000000      0.966600000000000
H      -1.346600000000000      1.677700000000000      0.054900000000000
H      -6.099100000000000      1.679100000000000     -1.042400000000000
H      -1.473500000000000      2.975200000000000     -2.094400000000000
H      -1.552100000000000      4.478800000000000     -1.173200000000000
H       0.696100000000000      3.990600000000000     -0.183600000000000
H       0.771500000000000      2.479200000000000     -1.110700000000000
H       0.754200000000000      4.037700000000000     -1.954100000000000
