65

O       7.117000000000000      3.133000000000000     -0.533400000000000
N       2.550600000000000     -1.461800000000000      0.033900000000000
C       4.435500000000000      0.018100000000000      0.728300000000000
C       5.943900000000000     -0.061600000000000      1.079400000000000
C       4.243800000000000      0.742700000000000     -0.601800000000000
C       3.885200000000000     -1.439600000000000      0.647200000000000
C       6.681900000000000      1.268700000000000      0.932200000000000
C       5.010700000000000      2.023400000000000     -0.804700000000000
C       6.490400000000000      1.856000000000000     -0.465600000000000
C       3.671100000000000      0.785800000000000      1.830500000000000
C       2.625500000000000     -1.008500000000000     -1.363700000000000
C       3.429600000000000      0.247400000000000     -1.550200000000000
C       1.954000000000000     -2.793400000000000      0.114200000000000
C       0.542700000000000     -2.824000000000000     -0.475000000000000
C      -0.431800000000000     -1.889700000000000      0.249000000000000
C      -1.809400000000000     -1.900900000000000     -0.418900000000000
C      -2.791100000000000     -0.989300000000000      0.320800000000000
C      -4.196400000000000     -0.986800000000000     -0.287600000000000
C      -5.159000000000000     -0.019500000000000      0.406700000000000
C      -6.523700000000000     -0.007400000000000     -0.287500000000000
C      -7.537100000000000      0.928100000000000      0.378300000000000
C      -8.922499999999999      0.885000000000000     -0.270400000000000
C      -9.911199999999999      1.780800000000000      0.477200000000000
C     -11.299700000000000      1.713700000000000     -0.138900000000000
H       6.437100000000000     -0.790900000000000      0.422100000000000
H       6.073900000000000     -0.435200000000000      2.102900000000000
H       3.840700000000000     -1.856700000000000      1.662000000000000
H       4.569800000000000     -2.081300000000000      0.074300000000000
H       7.751700000000000      1.120900000000000      1.125200000000000
H       6.346300000000000      1.985000000000000      1.691800000000000
H       4.573000000000000      2.813100000000000     -0.180400000000000
H       4.919200000000000      2.389300000000000     -1.835400000000000
H       6.968900000000000      1.209200000000000     -1.211300000000000
H       3.777900000000000      0.286300000000000      2.800300000000000
H       2.599400000000000      0.850500000000000      1.609200000000000
H       4.035900000000000      1.811100000000000      1.951900000000000
H       3.051000000000000     -1.782600000000000     -2.015400000000000
H       1.620200000000000     -0.773800000000000     -1.730100000000000
H       3.325200000000000      0.761300000000000     -2.501900000000000
H       1.894000000000000     -3.105500000000000      1.164600000000000
H       2.574900000000000     -3.535800000000000     -0.403800000000000
H       0.549600000000000     -2.619100000000000     -1.551300000000000
H       0.165400000000000     -3.851200000000000     -0.381400000000000
H       8.057900000000000      3.009200000000000     -0.321400000000000
H      -0.524000000000000     -2.200300000000000      1.296800000000000
H      -0.050200000000000     -0.862300000000000      0.249900000000000
H      -2.202900000000000     -2.924400000000000     -0.434500000000000
H      -1.718400000000000     -1.572300000000000     -1.461200000000000
H      -2.858800000000000     -1.301400000000000      1.370400000000000
H      -2.398500000000000      0.035300000000000      0.320300000000000
H      -4.121700000000000     -0.718600000000000     -1.349000000000000
H      -4.608200000000000     -2.002800000000000     -0.246400000000000
H      -5.279000000000000     -0.312200000000000      1.456500000000000
H      -4.736400000000000      0.992200000000000      0.397800000000000
H      -6.397400000000000      0.290700000000000     -1.335700000000000
H      -6.930600000000000     -1.026400000000000     -0.295100000000000
H      -7.152700000000000      1.955100000000000      0.348500000000000
H      -7.627800000000000      0.654900000000000      1.437100000000000
H      -8.848200000000000      1.204300000000000     -1.316800000000000
H      -9.292500000000000     -0.147500000000000     -0.272400000000000
H      -9.971299999999999      1.474700000000000      1.528100000000000
H      -9.558600000000000      2.818600000000000      0.461000000000000
H     -11.694599999999999      0.693200000000000     -0.106400000000000
H     -11.281700000000001      2.042400000000000     -1.182900000000000
H     -11.989599999999999      2.362400000000000      0.409800000000000
