65

O      -2.940200000000000     -1.993900000000000      1.260400000000000
N      -2.277400000000000     -2.668500000000000     -0.825600000000000
C      -1.080000000000000     -2.665600000000000      0.038500000000000
C       2.439900000000000      1.696600000000000     -0.432700000000000
C       3.629000000000000      1.237800000000000      0.414500000000000
C       1.210300000000000      1.966900000000000      0.438800000000000
C       4.867000000000000      0.885200000000000     -0.416400000000000
C       0.010900000000000      2.389100000000000     -0.412300000000000
C       6.030800000000000      0.357300000000000      0.426800000000000
C      -1.520800000000000     -1.912300000000000      1.288700000000000
C      -1.257500000000000      2.652500000000000      0.407800000000000
C      -4.667300000000000     -2.245500000000000     -0.374400000000000
C      -3.228900000000000     -2.323600000000000     -0.018100000000000
C      -5.013600000000000     -0.877700000000000     -0.954700000000000
C       7.272900000000000      0.016000000000000     -0.402700000000000
C      -4.714100000000000      0.266300000000000      0.019600000000000
C       0.065600000000000     -1.962900000000000     -0.682100000000000
C      -0.709000000000000     -4.118700000000000      0.349000000000000
C      -2.489200000000000      3.099100000000000     -0.387600000000000
C      -5.103400000000000      1.620000000000000     -0.579200000000000
C       8.410500000000001     -0.581500000000000      0.426400000000000
C      -3.680900000000000      3.395800000000000      0.475800000000000
C      -4.845900000000000      2.736600000000000      0.390300000000000
C       9.591300000000000     -0.969100000000000     -0.450900000000000
H       2.711100000000000      2.603700000000000     -0.985800000000000
H       2.200900000000000      0.924000000000000     -1.173700000000000
H       3.889100000000000      2.024400000000000      1.133400000000000
H       3.333800000000000      0.358300000000000      1.000400000000000
H       1.439100000000000      2.753100000000000      1.168100000000000
H       0.953700000000000      1.063500000000000      1.005200000000000
H       4.595500000000000      0.129400000000000     -1.163600000000000
H       5.193600000000000      1.774600000000000     -0.969200000000000
H      -0.203100000000000      1.610300000000000     -1.154300000000000
H       0.266300000000000      3.297100000000000     -0.972300000000000
H       6.298800000000000      1.104500000000000      1.183900000000000
H       5.702100000000000     -0.538600000000000      0.968000000000000
H      -1.142900000000000     -2.357000000000000      2.214600000000000
H      -1.241100000000000     -0.853000000000000      1.273000000000000
H      -1.508800000000000      1.739500000000000      0.963400000000000
H      -1.028400000000000      3.415700000000000      1.163400000000000
H      -5.273300000000000     -2.452400000000000      0.514800000000000
H      -4.890200000000000     -3.028900000000000     -1.107300000000000
H      -6.076900000000000     -0.865700000000000     -1.222400000000000
H      -4.447000000000000     -0.718900000000000     -1.880800000000000
H       7.628000000000000      0.921900000000000     -0.909400000000000
H       6.989600000000000     -0.695400000000000     -1.188700000000000
H      -3.646100000000000      0.286400000000000      0.261700000000000
H      -5.258200000000000      0.101500000000000      0.958200000000000
H       0.337600000000000     -2.492600000000000     -1.602000000000000
H       0.956000000000000     -1.902200000000000     -0.047000000000000
H      -0.215100000000000     -0.943800000000000     -0.970400000000000
H      -0.484900000000000     -4.672100000000000     -0.570100000000000
H      -1.530800000000000     -4.643100000000000      0.849900000000000
H       0.170600000000000     -4.170800000000000      0.999700000000000
H      -2.239600000000000      4.019500000000000     -0.930900000000000
H      -2.683500000000000      2.346800000000000     -1.155500000000000
H      -4.614900000000000      1.782400000000000     -1.545000000000000
H      -6.178100000000000      1.619100000000000     -0.803800000000000
H       8.738799999999999      0.142300000000000      1.181000000000000
H       8.054000000000000     -1.469600000000000      0.960800000000000
H      -3.582200000000000      4.190900000000000      1.210000000000000
H      -5.652200000000000      3.008000000000000      1.066500000000000
H       9.299700000000000     -1.718800000000000     -1.193300000000000
H       9.989300000000000     -0.097400000000000     -0.980100000000000
H      10.394800000000000     -1.391400000000000      0.160700000000000
