65

O      -2.614000000000000      0.402800000000000     -0.852700000000000
N      -4.714200000000000     -0.394500000000000     -0.406400000000000
C      -4.828800000000000      1.064300000000000     -0.604000000000000
C      -0.416900000000000     -3.728600000000000      0.565100000000000
C      -1.660300000000000     -3.417900000000000      1.403800000000000
C       0.711600000000000     -2.712000000000000      0.750100000000000
C      -2.342500000000000     -2.079100000000000      1.110400000000000
C       1.918300000000000     -3.058200000000000     -0.126700000000000
C      -2.780300000000000     -1.927400000000000     -0.341700000000000
C      -3.487200000000000      1.468500000000000     -1.205000000000000
C       3.032600000000000     -2.021400000000000      0.030500000000000
C      -3.443700000000000     -0.613000000000000     -0.526700000000000
C       4.256400000000000     -2.301600000000000     -0.849800000000000
C      -5.992300000000000      1.360400000000000     -1.544300000000000
C      -5.062000000000000      1.716500000000000      0.761900000000000
C       5.441000000000000     -1.345000000000000     -0.675000000000000
C       3.811500000000000      3.132600000000000      0.330400000000000
C       2.478500000000000      2.388500000000000      0.204500000000000
C       4.919900000000000      2.528000000000000     -0.537100000000000
C       5.118400000000000      0.077000000000000     -1.032100000000000
C       1.395100000000000      3.044100000000000      1.063500000000000
C       5.233600000000000      1.104500000000000     -0.177700000000000
C       0.056300000000000      2.321300000000000      0.916700000000000
C      -1.031100000000000      2.990100000000000      1.742500000000000
H      -0.049600000000000     -4.721500000000000      0.854100000000000
H      -0.687100000000000     -3.801900000000000     -0.494300000000000
H      -2.388500000000000     -4.224400000000000      1.251400000000000
H      -1.389600000000000     -3.445000000000000      2.466700000000000
H       1.013200000000000     -2.682900000000000      1.803900000000000
H       0.361500000000000     -1.708500000000000      0.484100000000000
H      -3.219700000000000     -1.988200000000000      1.764400000000000
H      -1.680500000000000     -1.251100000000000      1.391700000000000
H       1.609200000000000     -3.103500000000000     -1.178000000000000
H       2.298800000000000     -4.050700000000000      0.142700000000000
H      -1.929500000000000     -1.982200000000000     -1.028300000000000
H      -3.481700000000000     -2.721800000000000     -0.619300000000000
H      -3.102300000000000      2.411300000000000     -0.804200000000000
H      -3.509900000000000      1.540500000000000     -2.298200000000000
H       2.631100000000000     -1.031100000000000     -0.214000000000000
H       3.348400000000000     -1.986300000000000      1.080400000000000
H       4.611500000000000     -3.318700000000000     -0.640700000000000
H       3.943400000000000     -2.297000000000000     -1.902200000000000
H      -5.864700000000000      0.849900000000000     -2.505700000000000
H      -6.079600000000000      2.434600000000000     -1.739400000000000
H      -6.940800000000000      1.012600000000000     -1.119800000000000
H      -5.120800000000000      2.806700000000000      0.674500000000000
H      -4.255500000000000      1.475700000000000      1.463400000000000
H      -5.995800000000000      1.360900000000000      1.212300000000000
H       5.806900000000000     -1.413800000000000      0.356800000000000
H       6.262000000000000     -1.680300000000000     -1.320300000000000
H       4.129900000000000      3.136900000000000      1.380700000000000
H       3.673000000000000      4.180900000000000      0.038300000000000
H       2.594200000000000      1.345900000000000      0.520200000000000
H       2.162400000000000      2.378500000000000     -0.845600000000000
H       4.636900000000000      2.610100000000000     -1.593800000000000
H       5.832200000000000      3.123300000000000     -0.411100000000000
H       4.781500000000000      0.261800000000000     -2.049000000000000
H       1.704300000000000      3.037100000000000      2.115800000000000
H       1.278500000000000      4.093900000000000      0.767700000000000
H       5.579300000000000      0.920800000000000      0.836600000000000
H       0.159900000000000      1.277100000000000      1.234200000000000
H      -0.248800000000000      2.310700000000000     -0.136200000000000
H      -1.194900000000000      4.021400000000000      1.414100000000000
H      -1.973900000000000      2.446000000000000      1.637700000000000
H      -0.764700000000000      3.004600000000000      2.804100000000000
