65

N       5.270900000000000     -0.446500000000000      0.664900000000000
N      -5.282900000000000     -0.424900000000000     -0.656700000000000
C       1.206300000000000      0.929500000000000      0.344200000000000
C      -1.212300000000000      0.942000000000000     -0.375700000000000
C       0.000800000000000      1.796900000000000     -0.013400000000000
C       1.914500000000000      0.436700000000000     -0.924700000000000
C       2.177800000000000      1.699000000000000      1.249000000000000
C      -2.203500000000000      1.742800000000000     -1.230700000000000
C      -1.892600000000000      0.403100000000000      0.889800000000000
C       4.121500000000000      0.384400000000000      0.308200000000000
C      -4.125900000000000      0.393500000000000     -0.295500000000000
C       3.155200000000000     -0.392200000000000     -0.593300000000000
C       3.418300000000000      0.869400000000000      1.580000000000000
C      -3.450700000000000      0.924700000000000     -1.564200000000000
C      -3.140100000000000     -0.414300000000000      0.555900000000000
C       6.237100000000000     -0.484300000000000     -0.422100000000000
C      -6.225000000000000     -0.502800000000000      0.449100000000000
C       7.179200000000000     -1.691600000000000     -0.291800000000000
C      -7.169800000000000     -1.705300000000000      0.295900000000000
C       7.035400000000000      0.818500000000000     -0.416700000000000
C      -7.023400000000000      0.798800000000000      0.508200000000000
C       6.456600000000000     -3.032700000000000     -0.289400000000000
C      -6.447300000000000     -3.044900000000000      0.229200000000000
H       0.879900000000000      0.048700000000000      0.910300000000000
H      -0.893700000000000      0.083800000000000     -0.980500000000000
H      -0.260400000000000      2.456100000000000      0.824600000000000
H       0.265200000000000      2.460800000000000     -0.846700000000000
H       1.239700000000000     -0.174000000000000     -1.534100000000000
H       2.213000000000000      1.292000000000000     -1.544700000000000
H       2.485300000000000      2.631800000000000      0.759100000000000
H       1.676900000000000      1.980400000000000      2.183100000000000
H      -2.500200000000000      2.657000000000000     -0.700700000000000
H      -1.723100000000000      2.058400000000000     -2.164600000000000
H      -1.207700000000000     -0.229800000000000      1.463800000000000
H      -2.177400000000000      1.235600000000000      1.546100000000000
H       4.432500000000000      1.288900000000000     -0.226900000000000
H      -4.425100000000000      1.277900000000000      0.278500000000000
H       3.629400000000000     -0.685200000000000     -1.535900000000000
H       2.842700000000000     -1.320600000000000     -0.096700000000000
H       3.122100000000000      0.012600000000000      2.199700000000000
H       4.102700000000000      1.477600000000000      2.184400000000000
H      -3.168200000000000      0.091100000000000     -2.220700000000000
H      -4.148400000000000      1.553800000000000     -2.131200000000000
H      -3.593700000000000     -0.741600000000000      1.497500000000000
H      -2.838700000000000     -1.323800000000000      0.019500000000000
H       5.717100000000000     -0.096100000000000      1.511900000000000
H      -5.747600000000000     -0.044500000000000     -1.480600000000000
H       5.748300000000000     -0.580100000000000     -1.398200000000000
H      -5.714900000000000     -0.633300000000000      1.410100000000000
H       7.893500000000000     -1.683300000000000     -1.124700000000000
H       7.771700000000000     -1.609600000000000      0.628500000000000
H      -7.865600000000000     -1.727600000000000      1.144000000000000
H      -7.782300000000000     -1.590600000000000     -0.607700000000000
H       7.532700000000000      0.983800000000000      0.546300000000000
H       6.425900000000000      1.699000000000000     -0.637600000000000
H       7.819400000000000      0.783400000000000     -1.182200000000000
H      -7.541700000000000      0.998200000000000     -0.437100000000000
H      -6.409100000000000      1.671300000000000      0.747200000000000
H      -7.790500000000000      0.735500000000000      1.289000000000000
H       5.805700000000000     -3.137400000000000      0.584000000000000
H       5.847000000000000     -3.149700000000000     -1.191000000000000
H       7.183500000000000     -3.850900000000000     -0.263100000000000
H      -5.815600000000000     -3.117500000000000     -0.661400000000000
H      -5.818100000000000     -3.193800000000000      1.112500000000000
H      -7.174500000000000     -3.862200000000000      0.189300000000000
