65

O      -3.366400000000000      2.310300000000000      0.997900000000000
N      -2.201000000000000      1.910300000000000     -0.932900000000000
C      -3.428400000000000     -3.531600000000000      0.566500000000000
C      -3.891300000000000     -2.557900000000000     -0.521700000000000
C      -2.077700000000000     -3.161200000000000      1.182300000000000
C      -3.996000000000000     -1.087900000000000     -0.102300000000000
C      -1.246900000000000      2.454900000000000      0.053700000000000
C      -0.979800000000000     -3.106700000000000      0.117600000000000
C      -4.403600000000000     -0.155900000000000     -1.248000000000000
C       0.364900000000000     -2.704400000000000      0.725500000000000
C      -4.585400000000000      1.287700000000000     -0.787500000000000
C      -2.130500000000000      2.991300000000000      1.174400000000000
C       1.469300000000000     -2.681400000000000     -0.332400000000000
C      -3.310800000000000      1.844100000000000     -0.269500000000000
C       2.820700000000000     -2.310900000000000      0.281800000000000
C      -0.348000000000000      1.311300000000000      0.533500000000000
C      -0.413400000000000      3.553600000000000     -0.597200000000000
C       3.930600000000000     -2.320200000000000     -0.771300000000000
C       5.248700000000000     -1.924500000000000     -0.172800000000000
C       5.707900000000000     -0.664600000000000     -0.148300000000000
C       4.960700000000000      0.507100000000000     -0.716400000000000
C       4.571400000000000      1.538800000000000      0.346900000000000
C       3.830500000000000      2.746500000000000     -0.232500000000000
C       3.474400000000000      3.751100000000000      0.852500000000000
H      -3.376500000000000     -4.541900000000000      0.143000000000000
H      -4.180600000000000     -3.562600000000000      1.363900000000000
H      -4.882100000000000     -2.887700000000000     -0.861300000000000
H      -3.243600000000000     -2.644000000000000     -1.401700000000000
H      -1.817300000000000     -3.916500000000000      1.933900000000000
H      -2.144300000000000     -2.206600000000000      1.715400000000000
H      -3.031800000000000     -0.754300000000000      0.292200000000000
H      -4.721700000000000     -1.003000000000000      0.715700000000000
H      -1.225300000000000     -2.375600000000000     -0.659300000000000
H      -0.890400000000000     -4.085000000000000     -0.369700000000000
H      -3.650300000000000     -0.207900000000000     -2.043700000000000
H      -5.347900000000000     -0.506700000000000     -1.681300000000000
H       0.280400000000000     -1.716500000000000      1.192900000000000
H       0.633100000000000     -3.413500000000000      1.518200000000000
H      -5.360300000000000      1.346200000000000     -0.015100000000000
H      -4.911300000000000      1.910200000000000     -1.627900000000000
H      -1.732600000000000      2.782900000000000      2.172600000000000
H      -2.321300000000000      4.067300000000000      1.094200000000000
H       1.211700000000000     -1.959800000000000     -1.117200000000000
H       1.541600000000000     -3.666600000000000     -0.809000000000000
H       3.066800000000000     -3.016900000000000      1.085200000000000
H       2.746100000000000     -1.316900000000000      0.740400000000000
H       0.200600000000000      0.863300000000000     -0.302900000000000
H      -0.934300000000000      0.512700000000000      1.001400000000000
H       0.383700000000000      1.665500000000000      1.267900000000000
H       0.179400000000000      3.158200000000000     -1.429800000000000
H       0.273400000000000      4.008400000000000      0.124300000000000
H      -1.051300000000000      4.346200000000000     -1.004700000000000
H       3.658400000000000     -1.712400000000000     -1.638900000000000
H       4.040000000000000     -3.338300000000000     -1.167900000000000
H       5.849900000000000     -2.710000000000000      0.277200000000000
H       6.673200000000000     -0.468100000000000      0.310700000000000
H       4.058900000000000      0.226500000000000     -1.264700000000000
H       5.616100000000000      0.988700000000000     -1.453500000000000
H       3.938100000000000      1.057900000000000      1.103600000000000
H       5.474700000000000      1.884500000000000      0.866100000000000
H       4.454500000000000      3.236800000000000     -0.988400000000000
H       2.913300000000000      2.414400000000000     -0.732400000000000
H       2.819700000000000      3.299600000000000      1.604800000000000
H       4.373300000000000      4.121600000000000      1.355500000000000
H       2.950800000000000      4.608100000000000      0.417600000000000
