65

O       2.078500000000000      3.428000000000000      0.336700000000000
N       2.245700000000000      1.200800000000000     -0.170500000000000
C       2.913800000000000      1.408700000000000      1.129700000000000
C      -1.127900000000000      2.432000000000000     -0.825800000000000
C      -0.124600000000000      2.030000000000000     -1.908900000000000
C      -2.494100000000000      1.760400000000000     -0.984400000000000
C       1.212600000000000      2.753400000000000     -1.787900000000000
C       2.489100000000000      2.811200000000000      1.550400000000000
C      -3.461700000000000      2.220400000000000      0.108600000000000
C       1.875000000000000      2.394100000000000     -0.509500000000000
C      -4.861400000000000      1.604500000000000     -0.005000000000000
C       2.445600000000000      0.345700000000000      2.118000000000000
C       4.426800000000000      1.311600000000000      0.912600000000000
C       0.033700000000000     -2.729900000000000     -0.712300000000000
C      -1.220300000000000     -2.907600000000000      0.147700000000000
C       1.296900000000000     -3.107100000000000      0.064300000000000
C      -2.488100000000000     -2.567700000000000     -0.642200000000000
C      -4.923900000000000      0.073300000000000      0.042400000000000
C       2.581300000000000     -2.968200000000000     -0.758900000000000
C      -3.767500000000000     -2.700400000000000      0.190800000000000
C      -4.319800000000000     -0.509400000000000      1.287200000000000
C      -3.805300000000000     -1.746700000000000      1.348800000000000
C       3.879500000000000     -3.315600000000000     -0.026100000000000
C       5.116000000000000     -3.221500000000000     -0.905700000000000
H      -1.258100000000000      3.521300000000000     -0.847000000000000
H      -0.726800000000000      2.180500000000000      0.163500000000000
H       0.029800000000000      0.944300000000000     -1.871900000000000
H      -0.551700000000000      2.252900000000000     -2.894200000000000
H      -2.356400000000000      0.677400000000000     -0.938800000000000
H      -2.911600000000000      1.997200000000000     -1.970000000000000
H       1.070500000000000      3.838000000000000     -1.846900000000000
H       1.874400000000000      2.461400000000000     -2.610500000000000
H       3.300800000000000      3.389100000000000      2.003300000000000
H       1.635400000000000      2.813400000000000      2.237500000000000
H      -3.036700000000000      1.995800000000000      1.094100000000000
H      -3.564600000000000      3.311800000000000      0.060600000000000
H      -5.481400000000000      2.012800000000000      0.803700000000000
H      -5.322200000000000      1.941000000000000     -0.942300000000000
H       1.353700000000000      0.345200000000000      2.212600000000000
H       2.873500000000000      0.514500000000000      3.112000000000000
H       2.741600000000000     -0.655200000000000      1.788000000000000
H       4.970800000000000      1.469300000000000      1.850100000000000
H       4.775900000000000      2.057900000000000      0.189900000000000
H       4.704600000000000      0.326700000000000      0.519900000000000
H      -0.043100000000000     -3.355100000000000     -1.609900000000000
H       0.107100000000000     -1.688300000000000     -1.047700000000000
H      -1.135900000000000     -2.262300000000000      1.029600000000000
H      -1.280700000000000     -3.942100000000000      0.506700000000000
H       1.373300000000000     -2.478700000000000      0.959100000000000
H       1.212000000000000     -4.143500000000000      0.414000000000000
H      -2.406500000000000     -1.557600000000000     -1.054800000000000
H      -2.564500000000000     -3.247500000000000     -1.500200000000000
H      -4.459100000000000     -0.323500000000000     -0.865200000000000
H      -5.981700000000000     -0.216900000000000      0.009500000000000
H       2.496800000000000     -3.607800000000000     -1.646700000000000
H       2.653400000000000     -1.936800000000000     -1.127100000000000
H      -3.848500000000000     -3.722200000000000      0.582200000000000
H      -4.641000000000000     -2.568200000000000     -0.458200000000000
H      -4.332700000000000      0.090200000000000      2.193600000000000
H       3.806600000000000     -4.334200000000000      0.372800000000000
H       4.001000000000000     -2.646400000000000      0.833400000000000
H      -3.393700000000000     -2.092900000000000      2.293400000000000
H       6.011600000000000     -3.479600000000000     -0.332100000000000
H       5.240800000000000     -2.205900000000000     -1.294600000000000
H       5.044800000000000     -3.908400000000000     -1.754900000000000
