65

O       4.252800000000000      1.952800000000000      1.309800000000000
N       2.758700000000000      2.522200000000000     -0.380500000000000
C      -0.161400000000000      3.010400000000000      0.212400000000000
C       0.017600000000000      1.557700000000000     -0.228700000000000
C       0.998700000000000      3.529000000000000      1.066700000000000
C       0.847300000000000      1.357300000000000     -1.498800000000000
C       2.309900000000000      3.730800000000000      0.312100000000000
C       2.084000000000000      2.240000000000000     -1.650100000000000
C      -0.721700000000000     -2.732100000000000      0.353100000000000
C      -2.177500000000000     -2.640000000000000     -0.117300000000000
C       0.012400000000000     -3.958000000000000     -0.195400000000000
C      -2.904200000000000     -1.401000000000000      0.411600000000000
C       1.472100000000000     -4.046700000000000      0.262700000000000
C      -4.356400000000000     -1.299600000000000     -0.066800000000000
C       2.392300000000000     -2.915100000000000     -0.209000000000000
C      -5.130800000000000     -0.067500000000000      0.411600000000000
C       3.849200000000000     -3.092300000000000      0.230700000000000
C       3.695800000000000      1.697200000000000      0.240500000000000
C      -6.555600000000000      0.009200000000000     -0.140900000000000
C       4.769200000000000     -1.960600000000000     -0.241600000000000
C      -7.250000000000000      1.300000000000000      0.295300000000000
C       4.042400000000000      0.425100000000000     -0.425000000000000
C       4.408500000000000     -0.618200000000000      0.328700000000000
C      -8.653400000000000      1.399300000000000     -0.281200000000000
H      -0.331900000000000      3.664000000000000     -0.650800000000000
H      -1.068200000000000      3.063900000000000      0.828300000000000
H       0.446000000000000      0.966900000000000      0.590400000000000
H      -0.973600000000000      1.134300000000000     -0.421600000000000
H       0.706100000000000      4.489600000000000      1.508100000000000
H       1.163700000000000      2.840200000000000      1.904800000000000
H       1.151400000000000      0.303200000000000     -1.532900000000000
H       0.209100000000000      1.508500000000000     -2.378500000000000
H       2.212600000000000      4.539700000000000     -0.421300000000000
H       3.078000000000000      4.050100000000000      1.025700000000000
H       2.781400000000000      1.782800000000000     -2.357600000000000
H       1.797100000000000      3.196000000000000     -2.105200000000000
H      -0.695500000000000     -2.753500000000000      1.449400000000000
H      -0.204300000000000     -1.818600000000000      0.039500000000000
H      -2.717000000000000     -3.539600000000000      0.203000000000000
H      -2.200500000000000     -2.629400000000000     -1.214000000000000
H      -0.020300000000000     -3.945100000000000     -1.291600000000000
H      -0.512700000000000     -4.865200000000000      0.127400000000000
H      -2.888000000000000     -1.410900000000000      1.508200000000000
H      -2.365500000000000     -0.503600000000000      0.094800000000000
H       1.498200000000000     -4.095100000000000      1.358600000000000
H       1.880400000000000     -4.999500000000000     -0.097300000000000
H      -4.896700000000000     -2.199400000000000      0.253700000000000
H      -4.362100000000000     -1.310900000000000     -1.164300000000000
H       2.013800000000000     -1.964700000000000      0.181400000000000
H       2.349900000000000     -2.850400000000000     -1.303100000000000
H      -5.163900000000000     -0.068000000000000      1.508000000000000
H      -4.577900000000000      0.831800000000000      0.112600000000000
H       3.892400000000000     -3.167200000000000      1.324700000000000
H       4.231200000000000     -4.041200000000000     -0.165300000000000
H      -7.130500000000000     -0.858500000000000      0.204000000000000
H      -6.525100000000000     -0.037500000000000     -1.236200000000000
H       5.796900000000000     -2.193300000000000      0.062600000000000
H       4.769800000000000     -1.931100000000000     -1.338300000000000
H      -7.304900000000000      1.341400000000000      1.389400000000000
H      -6.666100000000000      2.167600000000000     -0.033500000000000
H       3.995600000000000      0.335900000000000     -1.501600000000000
H       4.451600000000000     -0.535900000000000      1.412000000000000
H      -9.274400000000000      0.561800000000000      0.052400000000000
H      -9.132099999999999      2.328100000000000      0.044300000000000
H      -8.629300000000001      1.395000000000000     -1.375600000000000
