65

O      -5.256800000000000     -2.375700000000000     -0.491600000000000
N      -3.489400000000000     -1.690300000000000      0.793900000000000
C      -3.405300000000000      3.128200000000000      0.038400000000000
C      -4.724300000000000      2.720400000000000     -0.625400000000000
C      -2.181000000000000      2.431100000000000     -0.558400000000000
C      -5.119200000000000      1.247300000000000     -0.477100000000000
C      -2.974400000000000     -2.681000000000000     -0.172400000000000
C      -0.898000000000000      2.850300000000000      0.162800000000000
C      -5.229600000000000      0.790900000000000      0.981400000000000
C       0.322900000000000      2.129200000000000     -0.411100000000000
C      -5.708000000000000     -0.653100000000000      1.104700000000000
C      -4.228200000000000     -3.320600000000000     -0.758800000000000
C       1.609800000000000      2.571500000000000      0.287200000000000
C      -4.740800000000000     -1.587800000000000      0.477700000000000
C       2.834100000000000      1.874500000000000     -0.309600000000000
C      -2.162800000000000     -1.936100000000000     -1.236500000000000
C      -2.098800000000000     -3.695000000000000      0.556300000000000
C       4.124200000000000      2.341200000000000      0.367700000000000
C       5.319800000000000      1.631300000000000     -0.196700000000000
C       6.171300000000000      0.903700000000000      0.541100000000000
C       7.368200000000000      0.194300000000000     -0.022800000000000
C       7.366400000000000     -1.308100000000000      0.276200000000000
C       8.573300000000000     -2.038900000000000     -0.317700000000000
C       8.526600000000000     -3.527500000000000     -0.009500000000000
H      -3.285100000000000      4.212400000000000     -0.083500000000000
H      -3.453500000000000      2.949800000000000      1.118300000000000
H      -4.678400000000000      2.964300000000000     -1.694000000000000
H      -5.525500000000000      3.340000000000000     -0.203300000000000
H      -2.104200000000000      2.670100000000000     -1.625800000000000
H      -2.291500000000000      1.344200000000000     -0.475800000000000
H      -4.400800000000000      0.625300000000000     -1.020900000000000
H      -6.087400000000000      1.101400000000000     -0.972400000000000
H      -0.763800000000000      3.934800000000000      0.069700000000000
H      -0.985700000000000      2.625300000000000      1.232600000000000
H      -5.932800000000000      1.442100000000000      1.514200000000000
H      -4.259300000000000      0.890200000000000      1.480700000000000
H       0.197100000000000      1.045400000000000     -0.299500000000000
H       0.398700000000000      2.337000000000000     -1.485400000000000
H      -5.807900000000000     -0.925400000000000      2.161200000000000
H      -6.694000000000000     -0.768300000000000      0.641100000000000
H      -4.498600000000000     -4.263700000000000     -0.270900000000000
H      -4.157500000000000     -3.495400000000000     -1.837000000000000
H       1.724500000000000      3.658100000000000      0.190800000000000
H       1.543000000000000      2.346800000000000      1.358700000000000
H       2.726200000000000      0.788300000000000     -0.196000000000000
H       2.885500000000000      2.080400000000000     -1.386400000000000
H      -2.775700000000000     -1.196300000000000     -1.763400000000000
H      -1.758800000000000     -2.629900000000000     -1.981600000000000
H      -1.323100000000000     -1.396300000000000     -0.783900000000000
H      -1.732500000000000     -4.466600000000000     -0.129300000000000
H      -2.653100000000000     -4.191100000000000      1.361200000000000
H      -1.231700000000000     -3.208000000000000      1.016700000000000
H       4.051900000000000      2.181200000000000      1.450300000000000
H       4.254000000000000      3.418900000000000      0.211800000000000
H       5.490900000000000      1.732000000000000     -1.265700000000000
H       6.009100000000000      0.814700000000000      1.612400000000000
H       7.430500000000000      0.346700000000000     -1.107300000000000
H       8.269000000000000      0.646300000000000      0.410100000000000
H       6.445000000000000     -1.754200000000000     -0.120100000000000
H       7.348400000000000     -1.463200000000000      1.362800000000000
H       9.499300000000000     -1.614000000000000      0.086200000000000
H       8.596000000000000     -1.895700000000000     -1.404200000000000
H       8.532900000000000     -3.704900000000000      1.070600000000000
H       7.625600000000000     -3.986900000000000     -0.428400000000000
H       9.397000000000000     -4.031200000000000     -0.441600000000000
