66

N       3.042500000000000     -0.787900000000000      0.340300000000000
N      -2.530400000000000      0.664300000000000     -0.774500000000000
C      -0.371900000000000     -0.276600000000000     -1.355100000000000
C      -0.415100000000000     -2.430700000000000      0.189800000000000
C      -0.902700000000000     -1.710800000000000     -1.094900000000000
C       1.150400000000000     -0.211800000000000     -1.111200000000000
C       1.109100000000000     -2.259900000000000      0.360700000000000
C       1.575900000000000     -0.809700000000000      0.231500000000000
C      -1.105400000000000      0.778200000000000     -0.506600000000000
C      -0.647000000000000      0.075900000000000     -2.835300000000000
C      -1.161100000000000     -1.946400000000000      1.446600000000000
C      -0.726100000000000     -3.938100000000000      0.042900000000000
C       3.592900000000000      0.251600000000000      0.854100000000000
C      -3.337700000000000      1.470900000000000     -0.171800000000000
C       5.105700000000000      0.237000000000000      0.996700000000000
C       2.854000000000000      1.466000000000000      1.364500000000000
C      -4.818200000000000      1.363900000000000     -0.497200000000000
C       5.773800000000000      1.360700000000000      0.190900000000000
C      -2.911500000000000      2.542800000000000      0.803200000000000
C      -5.657400000000000      1.003700000000000      0.737400000000000
C       7.296500000000000      1.334400000000000      0.340900000000000
C       5.394900000000000      1.240500000000000     -1.286100000000000
C      -7.145500000000000      0.897100000000000      0.396900000000000
C      -5.165800000000000     -0.315000000000000      1.336400000000000
H      -1.998800000000000     -1.743300000000000     -1.143000000000000
H      -0.572200000000000     -2.325900000000000     -1.946100000000000
H       1.668100000000000     -0.762300000000000     -1.910200000000000
H       1.499500000000000      0.823200000000000     -1.204200000000000
H       1.427600000000000     -2.664100000000000      1.331000000000000
H       1.630000000000000     -2.863700000000000     -0.396200000000000
H       1.114200000000000     -0.252700000000000      1.049600000000000
H      -0.746200000000000      1.774300000000000     -0.797300000000000
H      -0.896100000000000      0.668600000000000      0.557300000000000
H      -0.336300000000000      1.101700000000000     -3.064800000000000
H      -1.706400000000000     -0.023100000000000     -3.095700000000000
H      -0.090800000000000     -0.588500000000000     -3.507200000000000
H      -0.868500000000000     -0.948200000000000      1.770400000000000
H      -2.244600000000000     -1.946600000000000      1.285100000000000
H      -0.959300000000000     -2.609400000000000      2.296800000000000
H      -0.225900000000000     -4.366100000000000     -0.833400000000000
H      -1.802500000000000     -4.109200000000000     -0.071900000000000
H      -0.388400000000000     -4.501000000000000      0.920500000000000
H       5.340500000000000      0.348100000000000      2.061900000000000
H       5.490200000000000     -0.740600000000000      0.680400000000000
H       2.280300000000000      1.936200000000000      0.564400000000000
H       3.553600000000000      2.205900000000000      1.761200000000000
H       2.191800000000000      1.183100000000000      2.187200000000000
H      -5.141400000000000      2.329600000000000     -0.903400000000000
H      -4.960000000000000      0.616100000000000     -1.287300000000000
H       5.423800000000000      2.335500000000000      0.549500000000000
H      -2.572000000000000      2.075300000000000      1.731300000000000
H      -3.745600000000000      3.211900000000000      1.029400000000000
H      -2.106600000000000      3.148100000000000      0.379700000000000
H      -5.544500000000000      1.783500000000000      1.500100000000000
H       7.581800000000000      1.442300000000000      1.392500000000000
H       7.758200000000000      2.155200000000000     -0.218000000000000
H       7.715800000000000      0.392800000000000     -0.029500000000000
H       5.910900000000000      2.003400000000000     -1.879600000000000
H       4.321500000000000      1.385300000000000     -1.443200000000000
H       5.670400000000000      0.260100000000000     -1.690100000000000
H      -7.515400000000000      1.842300000000000     -0.013800000000000
H      -7.734900000000000      0.665800000000000      1.290400000000000
H      -7.328100000000000      0.111000000000000     -0.343700000000000
H      -5.797500000000000     -0.615000000000000      2.179800000000000
H      -4.143500000000000     -0.229600000000000      1.717800000000000
H      -5.188800000000000     -1.123200000000000      0.597200000000000
