66

N       2.589400000000000     -1.343200000000000     -0.182300000000000
N      -2.538500000000000      1.128100000000000     -0.350000000000000
C       1.361900000000000     -0.658100000000000     -0.586100000000000
C      -1.310300000000000      0.443200000000000      0.051200000000000
C      -0.105500000000000      1.361900000000000     -0.180400000000000
C       1.205700000000000      0.661700000000000      0.178500000000000
C      -1.154600000000000     -0.875900000000000     -0.714500000000000
C       0.156600000000000     -1.576500000000000     -0.355900000000000
C       6.263300000000000     -0.362100000000000     -0.236200000000000
C      -6.209000000000000      0.134000000000000     -0.313700000000000
C       5.026000000000000     -1.223000000000000      0.010700000000000
C      -4.975300000000000      1.006600000000000     -0.537000000000000
C       6.181300000000000      0.946200000000000      0.561900000000000
C       7.541100000000000     -1.136400000000000      0.114100000000000
C      -6.349800000000000     -0.236000000000000      1.169000000000000
C      -7.472200000000000      0.840900000000000     -0.822800000000000
C       3.754300000000000     -0.512900000000000     -0.446500000000000
C      -3.695700000000000      0.270400000000000     -0.148100000000000
C       7.432400000000000      1.801200000000000      0.373100000000000
C       8.789999999999999     -0.278100000000000     -0.073900000000000
C      -7.606300000000000     -1.064800000000000      1.426300000000000
C      -8.726900000000001      0.010400000000000     -0.562200000000000
C       8.700900000000001      1.025300000000000      0.713800000000000
C      -8.858800000000000     -0.362900000000000      0.911000000000000
H       1.413200000000000     -0.439400000000000     -1.661800000000000
H      -1.360900000000000      0.222600000000000      1.126600000000000
H      -0.068600000000000      1.678600000000000     -1.231400000000000
H      -0.203300000000000      2.273300000000000      0.422600000000000
H      -1.946500000000000     -1.591400000000000     -0.471800000000000
H      -1.188400000000000     -0.699100000000000     -1.797400000000000
H       1.239700000000000      0.485300000000000      1.261400000000000
H       1.995200000000000      1.379700000000000     -0.063200000000000
H       0.254100000000000     -2.487500000000000     -0.959600000000000
H       0.119200000000000     -1.894000000000000      0.694800000000000
H       6.305100000000000     -0.111100000000000     -1.305200000000000
H      -6.089100000000000     -0.794000000000000     -0.889900000000000
H       5.128500000000000     -2.170700000000000     -0.533900000000000
H       4.951400000000000     -1.477400000000000      1.076400000000000
H      -5.065100000000000      1.934600000000000      0.043000000000000
H      -4.920300000000000      1.298800000000000     -1.593900000000000
H       6.045300000000000      0.730400000000000      1.629200000000000
H       5.333900000000000      1.560200000000000      0.243800000000000
H       7.621100000000000     -2.031500000000000     -0.514300000000000
H       7.494900000000000     -1.482100000000000      1.154800000000000
H      -5.501200000000000     -0.832200000000000      1.516500000000000
H      -6.381700000000000      0.672700000000000      1.783500000000000
H      -7.577700000000000      1.816800000000000     -0.331600000000000
H      -7.385400000000000      1.034700000000000     -1.898600000000000
H       2.673300000000000     -2.225900000000000     -0.686000000000000
H      -2.643500000000000      1.987800000000000      0.188100000000000
H       3.825400000000000     -0.263500000000000     -1.511600000000000
H       3.682500000000000      0.407300000000000      0.128100000000000
H      -3.661800000000000     -0.622100000000000     -0.778900000000000
H      -3.720000000000000     -0.037100000000000      0.900500000000000
H       7.484800000000000      2.147400000000000     -0.666600000000000
H       7.367200000000000      2.694800000000000      1.004100000000000
H       9.674899999999999     -0.840900000000000      0.243900000000000
H       8.920500000000001     -0.052600000000000     -1.139600000000000
H      -7.507000000000000     -2.040800000000000      0.935200000000000
H      -7.708000000000000     -1.256900000000000      2.500400000000000
H      -9.612600000000000      0.571500000000000     -0.880800000000000
H      -8.692000000000000     -0.903000000000000     -1.168700000000000
H       9.580100000000000      1.644500000000000      0.503200000000000
H       8.715500000000000      0.804000000000000      1.788200000000000
H      -9.729900000000001     -1.012900000000000      1.050400000000000
H      -9.038300000000000      0.543500000000000      1.502300000000000
