66

N      -2.207800000000000     -0.841300000000000     -0.662700000000000
N       1.260900000000000     -1.814600000000000      0.290800000000000
C      -4.682300000000000     -0.816000000000000     -0.931500000000000
C      -3.608800000000000      0.319200000000000      1.048600000000000
C      -4.746900000000000      1.701900000000000     -0.733400000000000
C      -6.125000000000000      0.282100000000000      0.827500000000000
C      -3.480700000000000     -0.851300000000000      0.043800000000000
C      -4.643800000000000      0.515600000000000     -1.708300000000000
C      -6.014700000000000     -0.894600000000000     -0.157800000000000
C      -3.575300000000000      1.645500000000000      0.262700000000000
C      -4.945500000000000      0.236000000000000      1.814600000000000
C      -6.072000000000000      1.603600000000000      0.041400000000000
C      -1.134200000000000     -1.332400000000000      0.194300000000000
C       0.186500000000000     -1.341500000000000     -0.569800000000000
C       2.538300000000000     -1.795000000000000     -0.414300000000000
C       3.653700000000000     -2.305000000000000      0.499600000000000
C       5.044700000000000     -2.297900000000000     -0.166800000000000
C       5.457900000000000     -0.943100000000000     -0.779400000000000
C       5.260400000000000      0.273500000000000      0.132400000000000
C       6.095900000000000     -2.802000000000000      0.828200000000000
C       5.771000000000000      1.552700000000000     -0.541300000000000
C       5.624300000000000      2.809600000000000      0.336500000000000
C       6.194600000000000      4.060700000000000     -0.333000000000000
C       4.148900000000000      3.034100000000000      0.677700000000000
H      -4.626300000000000     -1.654700000000000     -1.635900000000000
H      -2.795500000000000      0.308800000000000      1.781500000000000
H      -4.714700000000000      2.644400000000000     -1.291200000000000
H      -7.070400000000000      0.216800000000000      1.377500000000000
H      -3.569300000000000     -1.795500000000000      0.600400000000000
H      -3.728000000000000      0.596700000000000     -2.305500000000000
H      -5.478100000000000      0.550300000000000     -2.420500000000000
H      -6.857800000000000     -0.877800000000000     -0.859200000000000
H      -6.071600000000000     -1.844600000000000      0.387500000000000
H      -3.645000000000000      2.489100000000000      0.961200000000000
H      -2.622700000000000      1.764100000000000     -0.266900000000000
H      -4.981900000000000     -0.692800000000000      2.396900000000000
H      -5.021300000000000      1.064700000000000      2.529200000000000
H      -6.918300000000000      1.660100000000000     -0.654200000000000
H      -6.168300000000000      2.452900000000000      0.729000000000000
H      -2.268700000000000     -1.437000000000000     -1.488300000000000
H      -1.357000000000000     -2.349900000000000      0.540200000000000
H      -1.020200000000000     -0.695300000000000      1.078100000000000
H       0.406300000000000     -0.327300000000000     -0.927300000000000
H       0.097000000000000     -1.994500000000000     -1.447000000000000
H       1.320500000000000     -1.228900000000000      1.123400000000000
H       2.743100000000000     -0.778700000000000     -0.761800000000000
H       2.485800000000000     -2.441900000000000     -1.298500000000000
H       3.682600000000000     -1.703800000000000      1.418000000000000
H       3.418900000000000     -3.330800000000000      0.814700000000000
H       5.020400000000000     -3.022500000000000     -0.992300000000000
H       4.884700000000000     -0.785200000000000     -1.702100000000000
H       6.508900000000000     -0.999100000000000     -1.091300000000000
H       4.203700000000000      0.381600000000000      0.382100000000000
H       5.802500000000000      0.124700000000000      1.073100000000000
H       6.168100000000000     -2.148900000000000      1.703700000000000
H       5.844100000000000     -3.808200000000000      1.180100000000000
H       7.084200000000000     -2.852800000000000      0.359200000000000
H       5.238200000000000      1.702200000000000     -1.489300000000000
H       6.830800000000000      1.423700000000000     -0.795500000000000
H       6.174200000000000      2.651400000000000      1.272900000000000
H       5.668100000000000      4.285000000000000     -1.266800000000000
H       6.107600000000000      4.931600000000000      0.325100000000000
H       7.255200000000000      3.922500000000000     -0.567400000000000
H       3.526400000000000      3.052000000000000     -0.223400000000000
H       4.014500000000000      3.990900000000000      1.194900000000000
H       3.764900000000000      2.261400000000000      1.350100000000000
