66

N      -1.461900000000000     -1.412200000000000     -0.041700000000000
N      -5.431100000000000      0.229700000000000      0.565200000000000
C       0.823500000000000     -1.047100000000000     -0.382000000000000
C       3.504300000000000      0.371300000000000     -0.192800000000000
C       1.090900000000000      0.074600000000000      0.653600000000000
C       2.146500000000000     -1.731100000000000     -0.766100000000000
C       2.184500000000000      1.056500000000000      0.219600000000000
C       3.217200000000000     -0.739800000000000     -1.224700000000000
C       0.062700000000000     -0.496400000000000     -1.611000000000000
C      -0.176000000000000     -2.074300000000000      0.178500000000000
C      -1.399700000000000     -0.901800000000000     -1.411000000000000
C       4.434500000000000      1.419600000000000     -0.832500000000000
C       4.222500000000000     -0.205600000000000      1.042800000000000
C      -2.593400000000000     -2.301200000000000      0.172500000000000
C       4.776200000000000      2.516600000000000      0.162700000000000
C       5.563500000000000     -0.806600000000000      0.654700000000000
C      -3.929700000000000     -1.596400000000000     -0.071700000000000
C       5.675600000000000      3.562900000000000     -0.475700000000000
C       6.261600000000000     -1.396000000000000      1.869800000000000
C      -4.139200000000000     -0.383200000000000      0.836100000000000
C      -5.523900000000000      0.758700000000000     -0.795100000000000
C      -5.700500000000000      1.373300000000000      1.436500000000000
C      -6.747100000000000      1.661000000000000     -0.726800000000000
C      -6.861000000000000      2.067700000000000      0.739200000000000
H       0.173400000000000      0.641800000000000      0.855900000000000
H       1.380500000000000     -0.376600000000000      1.611100000000000
H       2.523000000000000     -2.315600000000000      0.081900000000000
H       1.972900000000000     -2.456500000000000     -1.571500000000000
H       2.339500000000000      1.742300000000000      1.060100000000000
H       1.806600000000000      1.666500000000000     -0.610100000000000
H       2.858300000000000     -0.267400000000000     -2.150100000000000
H       4.115500000000000     -1.282600000000000     -1.530900000000000
H       0.148800000000000      0.590900000000000     -1.702500000000000
H       0.432600000000000     -0.932300000000000     -2.546500000000000
H      -0.004700000000000     -2.284000000000000      1.239900000000000
H      -0.115900000000000     -3.021400000000000     -0.374600000000000
H      -1.661600000000000     -1.669300000000000     -2.150700000000000
H      -2.059400000000000     -0.040400000000000     -1.557600000000000
H       5.338400000000000      0.976500000000000     -1.263800000000000
H       3.919000000000000      1.877300000000000     -1.689000000000000
H       4.341300000000000      0.535700000000000      1.840300000000000
H       3.613100000000000     -0.993600000000000      1.501200000000000
H      -2.576500000000000     -2.665900000000000      1.207200000000000
H      -2.534100000000000     -3.185200000000000     -0.475800000000000
H       5.317500000000000      2.137900000000000      1.033100000000000
H       3.884800000000000      3.037300000000000      0.522600000000000
H       6.249800000000000     -0.065400000000000      0.238200000000000
H       5.461800000000000     -1.616000000000000     -0.071900000000000
H      -4.000600000000000     -1.330900000000000     -1.131600000000000
H      -4.733300000000000     -2.322400000000000      0.111000000000000
H      -4.107500000000000     -0.717900000000000      1.880500000000000
H      -3.329500000000000      0.345600000000000      0.706800000000000
H       6.616000000000000      3.117900000000000     -0.816900000000000
H       5.916400000000000      4.349300000000000      0.246800000000000
H       5.185500000000000      4.032200000000000     -1.334800000000000
H       6.445700000000000     -0.628500000000000      2.628600000000000
H       7.226800000000000     -1.825500000000000      1.582800000000000
H       5.659800000000000     -2.190500000000000      2.323000000000000
H      -4.640500000000000      1.350700000000000     -1.066800000000000
H      -5.676100000000000     -0.017600000000000     -1.551000000000000
H      -5.967000000000000      1.065100000000000      2.452300000000000
H      -4.841400000000000      2.054300000000000      1.491700000000000
H      -7.650000000000000      1.118800000000000     -1.031600000000000
H      -6.640900000000000      2.531700000000000     -1.381800000000000
H      -6.811600000000000      3.154200000000000      0.863500000000000
H      -7.820300000000000      1.726100000000000      1.145300000000000
