66

N      -3.551100000000000      0.528300000000000      0.840300000000000
N       3.550500000000000      0.527000000000000     -0.840800000000000
C      -1.408700000000000      1.672200000000000      0.473500000000000
C       1.408300000000000      1.671500000000000     -0.473900000000000
C       0.756500000000000      2.934400000000000      0.103000000000000
C      -0.756800000000000      2.934200000000000     -0.105400000000000
C       0.756700000000000      0.409300000000000      0.105200000000000
C      -0.756600000000000      0.409000000000000     -0.103000000000000
C      -2.912900000000000      1.672100000000000      0.207700000000000
C       2.912800000000000      1.671800000000000     -0.209500000000000
C      -4.992700000000000      0.519800000000000      0.578700000000000
C       4.992200000000000      0.518900000000000     -0.580500000000000
C      -5.298600000000000      0.057700000000000     -0.854400000000000
C       5.299500000000000      0.059400000000000      0.852900000000000
C      -5.043400000000000     -1.442300000000000     -1.075900000000000
C       5.044500000000000     -1.440300000000000      1.077400000000000
C      -5.719800000000000     -0.362100000000000      1.602100000000000
C       5.718200000000000     -0.364700000000000     -1.603200000000000
C      -5.800600000000000     -2.282700000000000     -0.039100000000000
C       5.800700000000000     -2.282500000000000      0.041200000000000
C      -5.475500000000000     -1.855800000000000      1.390500000000000
C       5.474200000000000     -1.858100000000000     -1.388700000000000
C      -5.444500000000000     -1.850600000000000     -2.493200000000000
C       5.447000000000000     -1.846200000000000      2.495000000000000
H      -1.243600000000000      1.679300000000000      1.560500000000000
H       1.242400000000000      1.676600000000000     -1.560800000000000
H       0.972200000000000      3.010500000000000      1.176500000000000
H       1.184500000000000      3.826200000000000     -0.370300000000000
H       1.168000000000000     -0.492000000000000     -0.364000000000000
H       0.972200000000000      0.334900000000000      1.179000000000000
H      -0.972500000000000      3.008700000000000     -1.179100000000000
H      -1.184900000000000      3.826700000000000      0.366500000000000
H      -1.167900000000000     -0.491500000000000      0.368000000000000
H      -0.972100000000000      0.332300000000000     -1.176600000000000
H      -3.072000000000000      1.675000000000000     -0.875600000000000
H      -3.341900000000000      2.602000000000000      0.602300000000000
H       3.341400000000000      2.601100000000000     -0.606100000000000
H       3.072800000000000      1.676500000000000      0.873700000000000
H      -5.385200000000000      1.537200000000000      0.710400000000000
H       5.384500000000000      1.536000000000000     -0.714500000000000
H      -4.749500000000000      0.642500000000000     -1.599700000000000
H      -6.360000000000000      0.264300000000000     -1.052600000000000
H       4.751100000000000      0.645400000000000      1.597700000000000
H       6.361100000000000      0.266200000000000      1.049800000000000
H      -3.968600000000000     -1.636300000000000     -0.963600000000000
H       3.969700000000000     -1.634600000000000      0.966500000000000
H      -5.435800000000000     -0.083900000000000      2.624700000000000
H      -6.798400000000000     -0.171400000000000      1.524500000000000
H       5.433200000000000     -0.088200000000000     -2.625900000000000
H       6.797100000000000     -0.174000000000000     -1.526900000000000
H      -3.383200000000000      0.570100000000000      1.845400000000000
H       3.381500000000000      0.567100000000000     -1.845800000000000
H      -6.882000000000000     -2.190600000000000     -0.203300000000000
H      -5.551500000000000     -3.343300000000000     -0.164400000000000
H       5.551800000000000     -3.342800000000000      0.168500000000000
H       6.882400000000000     -2.190100000000000      0.204200000000000
H      -6.089700000000000     -2.430500000000000      2.093000000000000
H      -4.429300000000000     -2.096200000000000      1.615000000000000
H       6.087700000000000     -2.434100000000000     -2.090900000000000
H       4.427800000000000     -2.098900000000000     -1.611900000000000
H      -6.511800000000000     -1.680600000000000     -2.670900000000000
H      -4.881500000000000     -1.276200000000000     -3.236400000000000
H      -5.237600000000000     -2.912300000000000     -2.663900000000000
H       6.514400000000000     -1.675800000000000      2.671400000000000
H       4.884700000000000     -1.270400000000000      3.237600000000000
H       5.240400000000000     -2.907600000000000      2.667800000000000
