66

N      -2.914900000000000     -0.729400000000000      0.040800000000000
N       1.003500000000000     -2.517900000000000     -0.141000000000000
C      -4.188600000000000     -0.279800000000000     -0.552900000000000
C      -4.166500000000000      1.250800000000000     -0.727600000000000
C      -2.612000000000000     -0.088200000000000      1.325200000000000
C      -3.848600000000000      1.982800000000000      0.572900000000000
C      -2.568700000000000      1.434000000000000      1.190500000000000
C      -2.810300000000000     -2.182400000000000      0.141800000000000
C      -5.454100000000000     -0.730000000000000      0.193500000000000
C      -1.381800000000000     -2.584200000000000      0.513400000000000
C      -0.343800000000000     -2.109200000000000     -0.505600000000000
C       1.972700000000000     -2.048800000000000     -1.131800000000000
C       3.408000000000000     -2.416500000000000     -0.718400000000000
C       1.638600000000000     -2.647800000000000     -2.497500000000000
C       3.782700000000000     -1.902300000000000      0.677600000000000
C       3.752600000000000     -0.399400000000000      0.725800000000000
C       2.996900000000000      0.398300000000000      1.506500000000000
C       3.006000000000000      1.912600000000000      1.471200000000000
C       1.648100000000000      2.550400000000000      1.150100000000000
C       2.028900000000000     -0.213800000000000      2.487500000000000
C       1.105100000000000      2.156900000000000     -0.195500000000000
C       1.266000000000000      2.806200000000000     -1.363900000000000
C       0.649600000000000      2.270100000000000     -2.627900000000000
C       2.030700000000000      4.087600000000000     -1.534900000000000
H      -4.250900000000000     -0.701400000000000     -1.565300000000000
H      -5.125100000000000      1.604800000000000     -1.125100000000000
H      -3.405300000000000      1.513200000000000     -1.474800000000000
H      -1.624000000000000     -0.361800000000000      1.703600000000000
H      -3.338500000000000     -0.374900000000000      2.095400000000000
H      -4.678600000000000      1.871600000000000      1.280100000000000
H      -3.738200000000000      3.055700000000000      0.379200000000000
H      -2.406600000000000      1.890200000000000      2.173700000000000
H      -1.719000000000000      1.721900000000000      0.561800000000000
H      -3.063000000000000     -2.645800000000000     -0.820000000000000
H      -3.499100000000000     -2.589100000000000      0.891900000000000
H      -6.347900000000000     -0.329300000000000     -0.297800000000000
H      -5.552200000000000     -1.820200000000000      0.190800000000000
H      -5.471300000000000     -0.391500000000000      1.233600000000000
H      -1.107600000000000     -2.280600000000000      1.529000000000000
H      -1.354500000000000     -3.683000000000000      0.539800000000000
H      -0.649600000000000     -2.526500000000000     -1.470000000000000
H      -0.377600000000000     -1.017500000000000     -0.585900000000000
H       1.912300000000000     -0.956800000000000     -1.218500000000000
H       1.048300000000000     -3.533300000000000     -0.061300000000000
H       3.529000000000000     -3.507900000000000     -0.728400000000000
H       4.115200000000000     -2.020100000000000     -1.458900000000000
H       0.762100000000000     -2.181400000000000     -2.958000000000000
H       1.475900000000000     -3.730200000000000     -2.442900000000000
H       2.467300000000000     -2.481700000000000     -3.196200000000000
H       3.153900000000000     -2.381000000000000      1.430600000000000
H       4.808500000000000     -2.221700000000000      0.900200000000000
H       4.436100000000000      0.088500000000000      0.031500000000000
H       3.345000000000000      2.278400000000000      2.448700000000000
H       3.748600000000000      2.264300000000000      0.743100000000000
H       1.739600000000000      3.639600000000000      1.226900000000000
H       0.907000000000000      2.277100000000000      1.911700000000000
H       1.938300000000000      0.425100000000000      3.373700000000000
H       1.035400000000000     -0.308600000000000      2.038800000000000
H       2.341800000000000     -1.188700000000000      2.867100000000000
H       0.536300000000000      1.229200000000000     -0.198700000000000
H       1.427500000000000      2.057900000000000     -3.368600000000000
H       0.091200000000000      1.343100000000000     -2.458500000000000
H      -0.044800000000000      3.003100000000000     -3.051600000000000
H       1.353400000000000      4.893200000000000     -1.836400000000000
H       2.549900000000000      4.408000000000000     -0.628600000000000
H       2.792300000000000      3.968800000000000     -2.313000000000000
