66

N       2.222900000000000     -0.694500000000000      1.216200000000000
N      -1.108400000000000     -1.725000000000000     -0.098800000000000
C       3.413200000000000     -0.182900000000000      0.552200000000000
C       5.853300000000000      0.401900000000000      0.858900000000000
C       4.405200000000000      1.804100000000000     -0.656300000000000
C       5.051600000000000     -0.535300000000000     -1.340300000000000
C       4.592000000000000     -0.148700000000000      1.549300000000000
C       3.147800000000000      1.250100000000000      0.038200000000000
C       3.792700000000000     -1.083400000000000     -0.643800000000000
C       5.570300000000000      1.825000000000000      0.347800000000000
C       6.213400000000000     -0.501600000000000     -0.332700000000000
C       4.772900000000000      0.892600000000000     -1.839600000000000
C       1.249300000000000     -1.173400000000000      0.240900000000000
C      -0.133600000000000     -1.264200000000000      0.879200000000000
C      -2.444000000000000     -1.782800000000000      0.486200000000000
C      -3.453300000000000     -2.278900000000000     -0.550400000000000
C      -4.898000000000000     -2.350500000000000     -0.015000000000000
C      -5.413500000000000     -1.043600000000000      0.623300000000000
C      -5.178800000000000      0.224900000000000     -0.205100000000000
C      -5.836500000000000     -2.834500000000000     -1.126100000000000
C      -5.793800000000000      1.450200000000000      0.481400000000000
C      -5.614200000000000      2.755500000000000     -0.316000000000000
C      -4.123200000000000      3.043900000000000     -0.508800000000000
C      -6.287300000000000      3.951100000000000      0.359400000000000
H       6.685200000000000      0.423500000000000      1.571600000000000
H       4.211000000000000      2.820100000000000     -1.017700000000000
H       5.316800000000000     -1.178400000000000     -2.187000000000000
H       4.344500000000000      0.478900000000000      2.415700000000000
H       4.799000000000000     -1.154900000000000      1.937400000000000
H       2.314400000000000      1.284900000000000     -0.673100000000000
H       2.871600000000000      1.908800000000000      0.872500000000000
H       3.983300000000000     -2.112200000000000     -0.309600000000000
H       3.020100000000000     -1.132600000000000     -1.419500000000000
H       6.468200000000000      2.236600000000000     -0.129400000000000
H       5.327100000000000      2.484100000000000      1.190300000000000
H       7.122500000000000     -0.130900000000000     -0.822100000000000
H       6.433100000000000     -1.516800000000000      0.019900000000000
H       3.956100000000000      0.881500000000000     -2.571700000000000
H       5.656800000000000      1.287700000000000     -2.355300000000000
H       2.462600000000000     -1.461100000000000      1.844500000000000
H       1.525500000000000     -2.170000000000000     -0.126500000000000
H       1.149900000000000     -0.498900000000000     -0.617100000000000
H      -0.421600000000000     -0.277700000000000      1.264900000000000
H      -0.098700000000000     -1.959000000000000      1.727800000000000
H      -1.114300000000000     -1.098600000000000     -0.903400000000000
H      -2.715900000000000     -0.793000000000000      0.863100000000000
H      -2.448000000000000     -2.473200000000000      1.338400000000000
H      -3.421100000000000     -1.631600000000000     -1.436600000000000
H      -3.154200000000000     -3.278800000000000     -0.892900000000000
H      -4.922100000000000     -3.116400000000000      0.772400000000000
H      -4.931800000000000     -0.916400000000000      1.601400000000000
H      -6.485500000000000     -1.149000000000000      0.834300000000000
H      -4.108500000000000      0.379100000000000     -0.351100000000000
H      -5.628200000000000      0.108800000000000     -1.197800000000000
H      -5.853000000000000     -2.138900000000000     -1.971100000000000
H      -5.517800000000000     -3.812500000000000     -1.502700000000000
H      -6.860500000000000     -2.941000000000000     -0.752900000000000
H      -5.354200000000000      1.566400000000000      1.480400000000000
H      -6.866800000000000      1.274700000000000      0.630600000000000
H      -6.071500000000000      2.629400000000000     -1.305600000000000
H      -3.585400000000000      3.034000000000000      0.445300000000000
H      -3.977400000000000      4.030300000000000     -0.963600000000000
H      -3.652500000000000      2.320100000000000     -1.180600000000000
H      -5.855500000000000      4.142500000000000      1.347500000000000
H      -6.173000000000000      4.857600000000000     -0.244100000000000
H      -7.359100000000000      3.767400000000000      0.488300000000000
