66

N      -3.641900000000000     -0.862100000000000     -0.227900000000000
N       3.641700000000000     -0.861900000000000      0.228000000000000
C      -1.468500000000000     -2.006200000000000     -0.229100000000000
C       1.468300000000000     -2.006100000000000      0.228200000000000
C       0.728400000000000     -0.743700000000000     -0.232000000000000
C      -0.728100000000000     -0.743200000000000      0.229200000000000
C       0.728100000000000     -3.268800000000000     -0.230700000000000
C      -0.728200000000000     -3.268500000000000      0.230700000000000
C      -2.906000000000000     -2.006200000000000      0.287200000000000
C       2.906200000000000     -2.006500000000000     -0.286800000000000
C      -5.783500000000000      0.353900000000000     -0.257100000000000
C       5.783300000000000      0.354100000000000      0.258000000000000
C      -5.011100000000000     -0.853600000000000      0.271000000000000
C       5.011400000000000     -0.853800000000000     -0.269700000000000
C      -7.215300000000000      0.365100000000000      0.295300000000000
C      -5.053600000000000      1.658300000000000      0.090200000000000
C       7.215600000000000      0.365000000000000     -0.293000000000000
C       5.053600000000000      1.658200000000000     -0.091400000000000
C      -7.991800000000000      1.592500000000000     -0.176300000000000
C      -5.833700000000000      2.883600000000000     -0.380900000000000
C       7.991600000000000      1.592800000000000      0.178200000000000
C       5.833300000000000      2.884000000000000      0.379300000000000
C      -7.259000000000000      2.886700000000000      0.162900000000000
C       7.259100000000000      2.886600000000000     -0.163100000000000
H      -1.489800000000000     -2.012800000000000     -1.328400000000000
H       1.488700000000000     -2.011600000000000      1.327500000000000
H       1.213100000000000      0.157500000000000      0.161100000000000
H       0.758900000000000     -0.669200000000000     -1.326700000000000
H       0.759500000000000     -3.344200000000000     -1.325200000000000
H       1.230000000000000     -4.160700000000000      0.163200000000000
H      -1.212700000000000      0.157500000000000     -0.165200000000000
H      -0.758600000000000     -0.667100000000000      1.323900000000000
H      -0.759500000000000     -3.343200000000000      1.325200000000000
H      -1.230000000000000     -4.160800000000000     -0.162400000000000
H      -3.399700000000000     -2.935500000000000     -0.023800000000000
H      -2.901000000000000     -1.988500000000000      1.384400000000000
H       3.399700000000000     -2.935600000000000      0.025400000000000
H       2.902300000000000     -1.989800000000000     -1.384100000000000
H      -5.843500000000000      0.277400000000000     -1.352200000000000
H       5.842200000000000      0.278800000000000      1.353200000000000
H      -5.528100000000000     -1.772100000000000     -0.033800000000000
H      -5.004400000000000     -0.829100000000000      1.368200000000000
H       5.005700000000000     -0.830500000000000     -1.366900000000000
H       5.528100000000000     -1.772100000000000      0.036500000000000
H      -7.745500000000000     -0.541100000000000     -0.021100000000000
H      -7.193200000000000      0.353600000000000      1.392600000000000
H      -4.901100000000000      1.724400000000000      1.175300000000000
H      -4.061000000000000      1.689600000000000     -0.373400000000000
H       7.745600000000000     -0.540900000000000      0.024700000000000
H       7.194600000000000      0.352400000000000     -1.390300000000000
H       4.902300000000000      1.723300000000000     -1.176700000000000
H       4.060600000000000      1.689800000000000      0.371400000000000
H      -3.645500000000000     -0.881300000000000     -1.247300000000000
H       3.644300000000000     -0.880200000000000      1.247300000000000
H      -8.144399999999999      1.532800000000000     -1.260900000000000
H      -8.985400000000000      1.599600000000000      0.285900000000000
H      -5.316100000000000      3.795200000000000     -0.061500000000000
H      -5.861200000000000      2.899300000000000     -1.477500000000000
H       8.143100000000000      1.534100000000000      1.263100000000000
H       8.985600000000000      1.599400000000000     -0.283000000000000
H       5.315900000000000      3.795300000000000      0.058500000000000
H       5.859700000000000      2.900700000000000      1.475800000000000
H      -7.808900000000000      3.740800000000000     -0.248200000000000
H      -7.233600000000000      3.016800000000000      1.251800000000000
H       7.808600000000000      3.741100000000000      0.247600000000000
H       7.234800000000000      3.015600000000000     -1.252100000000000
