66

N      -3.578800000000000     -0.110000000000000     -0.714000000000000
N       3.578100000000000     -0.107400000000000      0.713300000000000
C      -1.424700000000000     -1.253600000000000     -0.422400000000000
C       1.424400000000000     -1.252200000000000      0.424100000000000
C       0.752700000000000      0.009400000000000     -0.132800000000000
C      -0.752400000000000      0.010200000000000      0.129100000000000
C       0.752400000000000     -2.515600000000000     -0.128000000000000
C      -0.752600000000000     -2.515100000000000      0.134200000000000
C      -2.918400000000000     -1.253300000000000     -0.103300000000000
C       2.918400000000000     -1.252900000000000      0.106300000000000
C      -5.007500000000000     -0.101100000000000     -0.401900000000000
C       5.007200000000000     -0.099700000000000      0.402500000000000
C      -5.761400000000000      0.724800000000000     -1.449200000000000
C      -5.246700000000000      0.448100000000000      1.009100000000000
C       5.760000000000000      0.730200000000000      1.447400000000000
C       5.247800000000000      0.444100000000000     -1.010300000000000
C      -7.501900000000000      1.349400000000000      0.284000000000000
C       7.502200000000000      1.348300000000000     -0.286500000000000
C      -7.253700000000000      0.802900000000000     -1.128200000000000
C      -6.738800000000000      0.526700000000000      1.330700000000000
C       7.252800000000000      0.807300000000000      1.127700000000000
C       6.740200000000000      0.521600000000000     -1.330700000000000
C      -8.996499999999999      1.370000000000000      0.599300000000000
C       8.997100000000000      1.367800000000000     -0.600500000000000
H      -1.298300000000000     -1.261900000000000     -1.514600000000000
H       1.297200000000000     -1.256200000000000      1.516200000000000
H       0.929700000000000      0.082500000000000     -1.213700000000000
H       1.180200000000000      0.911300000000000      0.320400000000000
H       1.197000000000000     -3.407000000000000      0.330700000000000
H       0.929800000000000     -2.592900000000000     -1.208400000000000
H      -1.179900000000000      0.910100000000000     -0.327900000000000
H      -0.929400000000000      0.087900000000000      1.209700000000000
H      -0.929900000000000     -2.588400000000000      1.214900000000000
H      -1.197200000000000     -3.408000000000000     -0.321300000000000
H      -3.361100000000000     -2.183800000000000     -0.481100000000000
H      -3.045300000000000     -1.250600000000000      0.985000000000000
H       3.046200000000000     -1.254300000000000     -0.981800000000000
H       3.360800000000000     -2.182000000000000      0.488000000000000
H      -5.406500000000000     -1.123800000000000     -0.459000000000000
H       5.406100000000000     -1.122100000000000      0.464000000000000
H      -5.633600000000000      0.284100000000000     -2.445700000000000
H      -5.351100000000000      1.742300000000000     -1.496300000000000
H      -4.767800000000000     -0.180400000000000      1.767700000000000
H      -4.806200000000000      1.449600000000000      1.103200000000000
H       5.349600000000000      1.747900000000000      1.490300000000000
H       5.631300000000000      0.293300000000000      2.445500000000000
H       4.769600000000000     -0.187300000000000     -1.766900000000000
H       4.807300000000000      1.445200000000000     -1.108600000000000
H      -3.445700000000000     -0.155400000000000     -1.724200000000000
H       3.444100000000000     -0.149000000000000      1.723600000000000
H      -7.134900000000000      2.383800000000000      0.323400000000000
H       7.135200000000000      2.382500000000000     -0.330200000000000
H      -7.748600000000000      1.443000000000000     -1.868400000000000
H      -7.697100000000000     -0.196300000000000     -1.226100000000000
H      -7.151200000000000     -0.489200000000000      1.381500000000000
H      -6.870700000000000      0.972600000000000      2.323800000000000
H       7.746800000000000      1.450400000000000      1.865800000000000
H       7.696100000000000     -0.191500000000000      1.229900000000000
H       7.152600000000000     -0.494600000000000     -1.377200000000000
H       6.873100000000000      0.963600000000000     -2.325500000000000
H      -9.538000000000000      1.984200000000000     -0.127700000000000
H      -9.177500000000000      1.790700000000000      1.594100000000000
H      -9.423100000000000      0.361500000000000      0.575300000000000
H       9.538000000000000      1.984800000000000      0.124700000000000
H       9.179100000000000      1.784600000000000     -1.596600000000000
H       9.423700000000000      0.359400000000000     -0.572100000000000
