66

N      -3.551800000000000      0.108600000000000     -0.630900000000000
N       3.551300000000000      0.106300000000000      0.630400000000000
C      -1.421800000000000      1.315500000000000     -0.431500000000000
C       1.421500000000000      1.313800000000000      0.433600000000000
C       0.753200000000000      0.052500000000000     -0.127700000000000
C      -0.753400000000000      0.052000000000000      0.124700000000000
C       0.753400000000000      2.577600000000000     -0.122900000000000
C      -0.753400000000000      2.577300000000000      0.129300000000000
C      -2.917600000000000      1.314800000000000     -0.122100000000000
C       2.917600000000000      1.314400000000000      0.125500000000000
C      -4.988200000000000      0.099600000000000     -0.326000000000000
C       4.988000000000000      0.098400000000000      0.326800000000000
C      -5.702000000000000     -0.797500000000000     -1.347400000000000
C      -5.157500000000000     -0.331100000000000      1.135400000000000
C       5.700700000000000     -0.802600000000000      1.345400000000000
C       5.158700000000000     -0.326600000000000     -1.136200000000000
C      -7.220900000000000     -0.640500000000000     -1.314000000000000
C      -6.603600000000000     -0.464700000000000      1.613600000000000
C       7.219700000000000     -0.645600000000000      1.314000000000000
C       6.605300000000000     -0.458400000000000     -1.613400000000000
C      -7.946400000000000     -1.527200000000000     -0.307700000000000
C      -7.293600000000000     -1.706200000000000      1.058700000000000
C       7.946200000000000     -1.528400000000000      0.305100000000000
C       7.294700000000000     -1.702000000000000     -1.062700000000000
H      -1.290800000000000      1.319600000000000     -1.523000000000000
H       1.289700000000000      1.313800000000000      1.525100000000000
H       1.172600000000000     -0.851300000000000      0.329200000000000
H       0.937800000000000     -0.021000000000000     -1.207300000000000
H       0.936900000000000      2.655100000000000     -1.202200000000000
H       1.195800000000000      3.468400000000000      0.338800000000000
H      -1.172800000000000     -0.849900000000000     -0.335800000000000
H      -0.938000000000000     -0.025800000000000      1.204000000000000
H      -0.936700000000000      2.651100000000000      1.208900000000000
H      -1.195700000000000      3.469800000000000     -0.329200000000000
H      -3.373200000000000      2.202600000000000     -0.579100000000000
H      -3.044200000000000      1.405800000000000      0.961800000000000
H       3.372800000000000      2.200500000000000      0.586200000000000
H       3.045100000000000      1.409400000000000     -0.957800000000000
H      -5.392800000000000      1.113600000000000     -0.448600000000000
H       5.392500000000000      1.111900000000000      0.453700000000000
H      -3.407500000000000      0.067500000000000     -1.639700000000000
H       3.406000000000000      0.061400000000000      1.638800000000000
H      -5.378700000000000     -0.505000000000000     -2.356000000000000
H      -5.414700000000000     -1.849000000000000     -1.224100000000000
H      -4.631200000000000     -1.279000000000000      1.312600000000000
H      -4.684000000000000      0.403500000000000      1.797100000000000
H       5.376500000000000     -0.514000000000000      2.354900000000000
H       5.413500000000000     -1.853700000000000      1.217700000000000
H       4.632600000000000     -1.273800000000000     -1.317500000000000
H       4.685800000000000      0.410500000000000     -1.795500000000000
H      -7.619400000000000     -0.879500000000000     -2.308600000000000
H      -7.485700000000000      0.409300000000000     -1.137000000000000
H      -7.177600000000000      0.443300000000000      1.396900000000000
H      -6.577000000000000     -0.561100000000000      2.706800000000000
H       7.617200000000000     -0.888500000000000      2.308000000000000
H       7.484700000000000      0.404900000000000      1.141400000000000
H       7.179100000000000      0.448700000000000     -1.392500000000000
H       6.579800000000000     -0.550400000000000     -2.707000000000000
H      -8.089700000000001     -2.522900000000000     -0.746900000000000
H      -8.956099999999999     -1.119900000000000     -0.168200000000000
H      -8.076300000000000     -2.019200000000000      1.761600000000000
H      -6.583100000000000     -2.541400000000000      1.017700000000000
H       8.088900000000001     -2.525900000000000      0.740500000000000
H       8.956099999999999     -1.120600000000000      0.168100000000000
H       8.078099999999999     -2.012300000000000     -1.766100000000000
H       6.584200000000000     -2.537300000000000     -1.025700000000000
