67

O      -3.715400000000000      0.465300000000000     -0.748600000000000
O      -1.510300000000000      0.944200000000000      0.055400000000000
C      -3.444900000000000      1.713200000000000      1.335600000000000
C      -2.343600000000000      0.708100000000000     -1.087000000000000
C      -4.288400000000000      1.481900000000000      0.071200000000000
C      -1.992700000000000      1.980800000000000      0.907700000000000
C      -1.834500000000000     -0.596300000000000     -1.706800000000000
C      -3.991300000000000      2.912100000000000      2.120300000000000
C      -3.497400000000000      0.458100000000000      2.228200000000000
C      -2.206900000000000      1.826000000000000     -2.127500000000000
C      -1.900800000000000     -1.752100000000000     -0.709500000000000
C      -1.373700000000000     -3.023600000000000     -1.312600000000000
C      -0.373400000000000     -3.794200000000000     -0.842700000000000
C       2.910200000000000      2.038100000000000     -0.387000000000000
C       0.455000000000000     -3.461800000000000      0.378500000000000
C       3.412500000000000      0.719500000000000      0.209400000000000
C       3.905500000000000      2.686100000000000     -1.367000000000000
C       2.393900000000000      0.132600000000000      1.191300000000000
C       1.721800000000000     -2.677900000000000      0.018900000000000
C       2.857500000000000     -1.188200000000000      1.762000000000000
C       2.543100000000000     -2.392800000000000      1.246500000000000
C       0.011400000000000     -5.062600000000000     -1.557300000000000
C       3.295900000000000      3.957900000000000     -1.961300000000000
C       5.246900000000000      3.013100000000000     -0.710300000000000
C       3.719500000000000     -1.087600000000000      2.992600000000000
H      -5.301600000000000      1.158100000000000      0.335200000000000
H      -4.397800000000000      2.401200000000000     -0.515300000000000
H      -1.892700000000000      2.945300000000000      0.396900000000000
H      -1.332000000000000      2.020700000000000      1.781200000000000
H      -2.431500000000000     -0.850400000000000     -2.592700000000000
H      -0.792600000000000     -0.471800000000000     -2.031500000000000
H      -5.028900000000000      2.742900000000000      2.429000000000000
H      -3.398600000000000      3.096900000000000      3.023100000000000
H      -3.968900000000000      3.825200000000000      1.514900000000000
H      -2.895600000000000      0.596200000000000      3.133700000000000
H      -3.120100000000000     -0.431700000000000      1.715700000000000
H      -4.525000000000000      0.244900000000000      2.543800000000000
H      -2.558100000000000      2.789800000000000     -1.747400000000000
H      -2.801700000000000      1.606300000000000     -3.020700000000000
H      -1.159900000000000      1.967000000000000     -2.417300000000000
H      -1.358100000000000     -1.489900000000000      0.201300000000000
H      -2.940500000000000     -1.935400000000000     -0.413500000000000
H      -1.900900000000000     -3.354400000000000     -2.206500000000000
H       1.961900000000000      1.853200000000000     -0.908100000000000
H       2.689100000000000      2.741100000000000      0.426600000000000
H       4.358400000000000      0.879100000000000      0.737800000000000
H       3.609800000000000      0.006700000000000     -0.600700000000000
H      -0.134400000000000     -2.907700000000000      1.117600000000000
H       0.725900000000000     -4.397400000000000      0.886800000000000
H       4.090600000000000      1.985500000000000     -2.191200000000000
H       2.216400000000000      0.839700000000000      2.011900000000000
H       1.421300000000000      0.020900000000000      0.698300000000000
H       2.342300000000000     -3.265800000000000     -0.669000000000000
H       1.456700000000000     -1.762700000000000     -0.519700000000000
H       2.933100000000000     -3.280800000000000      1.742600000000000
H       1.053400000000000     -5.014900000000000     -1.888900000000000
H      -0.102200000000000     -5.922600000000000     -0.889100000000000
H      -0.608300000000000     -5.247100000000000     -2.441200000000000
H       2.350900000000000      3.736300000000000     -2.468400000000000
H       3.971100000000000      4.406500000000000     -2.697800000000000
H       3.097300000000000      4.704300000000000     -1.184500000000000
H       5.111400000000000      3.627700000000000      0.185900000000000
H       5.893200000000000      3.564400000000000     -1.402200000000000
H       5.786700000000000      2.105000000000000     -0.426200000000000
H       4.628000000000000     -0.516000000000000      2.778100000000000
H       3.173700000000000     -0.584800000000000      3.797600000000000
H       4.028200000000000     -2.069700000000000      3.366300000000000
