67

O      -4.412200000000000     -3.350500000000000      0.368400000000000
O      -1.211900000000000     -1.627500000000000      0.864000000000000
C      -3.600800000000000     -2.233600000000000      0.766200000000000
C      -2.174400000000000     -2.389000000000000      0.120300000000000
C      -4.025700000000000     -0.376200000000000     -0.872600000000000
C      -4.325000000000000     -0.989600000000000      0.285800000000000
C      -4.759200000000000      0.832800000000000     -1.366500000000000
C      -3.863900000000000      2.062400000000000     -1.538100000000000
C      -3.135100000000000      2.457800000000000     -0.248900000000000
C      -2.275700000000000      3.706500000000000     -0.462100000000000
C      -1.527000000000000      4.152700000000000      0.797600000000000
C      -0.494100000000000      3.161300000000000      1.342900000000000
C      -2.117200000000000     -1.829900000000000     -1.285000000000000
C       0.685800000000000      2.856000000000000      0.414600000000000
C       1.754400000000000      1.919000000000000      0.985700000000000
C      -3.552200000000000     -2.238000000000000      2.302500000000000
C       2.917800000000000      1.666100000000000      0.024500000000000
C      -2.982000000000000     -0.905300000000000     -1.725500000000000
C      -1.693300000000000     -3.849100000000000      0.103000000000000
C       3.956700000000000      0.730600000000000      0.646700000000000
C       5.136600000000000      0.501500000000000     -0.299600000000000
C       6.191600000000000     -0.406900000000000      0.335900000000000
C       7.385300000000000     -0.608000000000000     -0.600200000000000
C       8.460599999999999     -1.530300000000000     -0.021900000000000
C       9.660900000000000     -1.712900000000000     -0.937800000000000
H      -5.143500000000000     -0.613400000000000      0.895200000000000
H      -5.236200000000000      0.601300000000000     -2.327600000000000
H      -5.577400000000000      1.090400000000000     -0.681300000000000
H      -3.131000000000000      1.889900000000000     -2.335900000000000
H      -4.488800000000000      2.900400000000000     -1.871600000000000
H      -2.495500000000000      1.633100000000000      0.079800000000000
H      -3.865700000000000      2.644100000000000      0.547300000000000
H      -1.564400000000000      3.536200000000000     -1.278200000000000
H      -2.923200000000000      4.531600000000000     -0.784700000000000
H      -2.258100000000000      4.363900000000000      1.587900000000000
H      -1.022300000000000      5.102700000000000      0.582500000000000
H      -0.985500000000000      2.223600000000000      1.625700000000000
H      -0.093000000000000      3.579400000000000      2.275300000000000
H       0.304700000000000      2.411400000000000     -0.512400000000000
H       1.162800000000000      3.803100000000000      0.132300000000000
H      -1.324300000000000     -2.164000000000000     -1.949300000000000
H       1.284800000000000      0.962800000000000      1.248200000000000
H       2.141200000000000      2.348200000000000      1.918200000000000
H      -3.077900000000000     -3.151400000000000      2.677200000000000
H      -3.008100000000000     -1.374700000000000      2.699900000000000
H      -4.562200000000000     -2.225300000000000      2.730500000000000
H       2.536800000000000      1.228200000000000     -0.906000000000000
H       3.389600000000000      2.621200000000000     -0.236100000000000
H      -2.895200000000000     -0.528400000000000     -2.739400000000000
H      -1.679700000000000     -4.268000000000000      1.115000000000000
H      -0.662800000000000     -3.922100000000000     -0.266200000000000
H      -2.320800000000000     -4.485900000000000     -0.529500000000000
H       3.488200000000000     -0.230600000000000      0.890600000000000
H       4.320300000000000      1.161400000000000      1.587600000000000
H       4.777500000000000      0.052700000000000     -1.233600000000000
H       5.591500000000000      1.465600000000000     -0.557800000000000
H       6.538100000000000      0.031300000000000      1.279600000000000
H       5.744500000000000     -1.379300000000000      0.575000000000000
H      -5.289400000000000     -3.253400000000000      0.777200000000000
H      -0.335600000000000     -1.760000000000000      0.463100000000000
H       7.033500000000000     -1.023800000000000     -1.552600000000000
H       7.834100000000000      0.367000000000000     -0.827500000000000
H       8.807100000000000     -1.126700000000000      0.937000000000000
H       8.021500000000000     -2.513000000000000      0.187300000000000
H       9.358200000000000     -2.149700000000000     -1.894700000000000
H      10.149100000000001     -0.753800000000000     -1.137000000000000
H      10.394800000000000     -2.380000000000000     -0.475000000000000
