67

O       0.632300000000000      2.189200000000000      1.514900000000000
N      -2.793500000000000      1.284100000000000      0.521000000000000
C      -1.328900000000000      1.222300000000000      0.502500000000000
C      -0.740600000000000      2.456900000000000      1.215700000000000
C      -0.788000000000000      1.128700000000000     -0.912900000000000
C      -0.842700000000000      3.745000000000000      0.387200000000000
C      -0.889800000000000      2.380200000000000     -1.748800000000000
C      -0.265400000000000      3.569500000000000     -1.019800000000000
C      -0.205000000000000      0.013400000000000     -1.379000000000000
C      -3.363200000000000     -0.041600000000000      0.348700000000000
C      -0.076000000000000     -1.257700000000000     -0.591800000000000
C       1.174100000000000     -1.290100000000000      0.293100000000000
C      -4.889400000000000      0.037400000000000      0.345800000000000
C       2.478300000000000     -1.233200000000000     -0.508500000000000
C      -5.566000000000000     -1.324600000000000      0.161400000000000
C       3.697800000000000     -1.237700000000000      0.417000000000000
C       4.999600000000000     -1.148900000000000     -0.382100000000000
C      -7.094000000000000     -1.245900000000000      0.131800000000000
C       6.254000000000000     -1.143500000000000      0.496700000000000
C       7.588300000000000     -1.036000000000000     -0.248800000000000
C      -7.717500000000000     -2.637900000000000      0.019100000000000
C       8.836000000000000     -0.961700000000000      0.634300000000000
C      -9.234900000000000     -2.565200000000000     -0.042600000000000
C      10.134600000000001     -0.902700000000000     -0.154900000000000
H      -1.011000000000000      0.373900000000000      1.117400000000000
H      -1.237900000000000      2.608200000000000      2.181800000000000
H      -0.301900000000000      4.556600000000000      0.887800000000000
H      -1.893000000000000      4.050900000000000      0.310500000000000
H      -0.396000000000000      2.255600000000000     -2.719700000000000
H      -1.946300000000000      2.587500000000000     -1.958600000000000
H       0.821400000000000      3.431500000000000     -0.954800000000000
H      -0.433200000000000      4.484200000000000     -1.599900000000000
H      -3.115800000000000      1.673000000000000      1.406800000000000
H       0.197900000000000      0.000800000000000     -2.388800000000000
H      -3.043600000000000     -0.709600000000000      1.157600000000000
H      -3.050000000000000     -0.482500000000000     -0.603900000000000
H      -0.034100000000000     -2.091800000000000     -1.304400000000000
H      -0.961700000000000     -1.459000000000000      0.016800000000000
H       1.152500000000000     -0.467400000000000      1.016000000000000
H       1.158100000000000     -2.218100000000000      0.878200000000000
H      -5.236500000000000      0.480200000000000      1.288400000000000
H      -5.218400000000000      0.708500000000000     -0.458400000000000
H       0.986400000000000      2.963600000000000      1.984400000000000
H       2.528100000000000     -2.090000000000000     -1.191200000000000
H       2.504400000000000     -0.326200000000000     -1.123400000000000
H      -5.210800000000000     -1.779800000000000     -0.771500000000000
H      -5.252800000000000     -1.988800000000000      0.976600000000000
H       3.699500000000000     -2.152500000000000      1.021700000000000
H       3.637900000000000     -0.390500000000000      1.110800000000000
H       5.057300000000000     -1.994300000000000     -1.078900000000000
H       4.989400000000000     -0.236800000000000     -0.991600000000000
H      -7.454200000000000     -0.755600000000000      1.044300000000000
H      -7.411200000000000     -0.626100000000000     -0.715500000000000
H       6.265400000000000     -2.057600000000000      1.103600000000000
H       6.182500000000000     -0.305800000000000      1.202000000000000
H       7.560200000000000     -0.146000000000000     -0.890100000000000
H       7.680200000000000     -1.898100000000000     -0.921600000000000
H      -7.420600000000000     -3.249900000000000      0.878700000000000
H      -7.345800000000000     -3.140600000000000     -0.881400000000000
H       8.862900000000000     -1.836400000000000      1.294900000000000
H       8.770000000000000     -0.078000000000000      1.279700000000000
H      -9.565000000000000     -1.987300000000000     -0.911700000000000
H      -9.659700000000001     -3.570800000000000     -0.122100000000000
H      -9.641900000000000     -2.094600000000000      0.858000000000000
H      10.157800000000000     -0.020300000000000     -0.802100000000000
H      10.990800000000000     -0.850100000000000      0.524800000000000
H      10.250900000000000     -1.792100000000000     -0.782200000000000
