67

N      -5.550700000000000     -0.178300000000000      0.104500000000000
N       7.024200000000000      0.067500000000000      0.362900000000000
C      -0.930300000000000     -0.830000000000000      0.654600000000000
C      -1.739300000000000      0.173000000000000     -0.187600000000000
C       0.579300000000000     -0.901700000000000      0.398100000000000
C       1.216000000000000      0.529800000000000      0.358900000000000
C       2.720000000000000      0.525900000000000     -0.152400000000000
C      -3.139000000000000     -0.052400000000000      0.446100000000000
C       3.328000000000000     -0.887000000000000      0.091200000000000
C      -1.149800000000000      1.566100000000000      0.067900000000000
C       0.335500000000000      1.617700000000000     -0.314500000000000
C      -1.771900000000000     -2.102200000000000      0.624700000000000
C       1.066000000000000     -1.795100000000000     -0.742500000000000
C      -3.223600000000000     -1.586900000000000      0.620100000000000
C       2.591600000000000     -1.975500000000000     -0.711300000000000
C       3.531900000000000      1.563400000000000      0.675300000000000
C      -1.771200000000000     -0.125300000000000     -1.702800000000000
C       4.845700000000000     -0.958800000000000     -0.154000000000000
C      -4.332800000000000      0.523700000000000     -0.302000000000000
C       2.829700000000000      0.913800000000000     -1.651100000000000
C       5.041100000000000      1.503200000000000      0.424900000000000
C       5.594000000000000      0.096600000000000      0.668900000000000
C      -4.477800000000000      2.021300000000000     -0.040100000000000
C      -6.582200000000000     -0.047600000000000     -0.923400000000000
C      -6.034700000000000      0.338800000000000      1.383700000000000
H      -0.992300000000000     -0.478500000000000      1.700700000000000
H       0.972800000000000     -1.386000000000000      1.306500000000000
H       1.242500000000000      0.824000000000000      1.420100000000000
H      -3.119400000000000      0.370300000000000      1.462600000000000
H       3.191200000000000     -1.122500000000000      1.157700000000000
H      -1.256400000000000      1.844400000000000      1.123900000000000
H      -1.669600000000000      2.331400000000000     -0.514000000000000
H       0.397100000000000      1.546100000000000     -1.403900000000000
H       0.728000000000000      2.608300000000000     -0.053500000000000
H      -1.574900000000000     -2.741900000000000      1.490800000000000
H      -1.591900000000000     -2.696200000000000     -0.276800000000000
H       0.785100000000000     -1.385500000000000     -1.713900000000000
H       0.606400000000000     -2.787800000000000     -0.688000000000000
H      -3.726600000000000     -1.847600000000000      1.558300000000000
H      -3.765900000000000     -2.077400000000000     -0.196800000000000
H       2.825400000000000     -2.951000000000000     -0.265100000000000
H       2.964100000000000     -2.022700000000000     -1.742200000000000
H       3.363200000000000      1.391700000000000      1.746800000000000
H       3.174600000000000      2.579400000000000      0.467000000000000
H      -2.251800000000000     -1.080500000000000     -1.935600000000000
H      -0.776300000000000     -0.152200000000000     -2.146600000000000
H      -2.306500000000000      0.660200000000000     -2.247700000000000
H       5.207600000000000     -1.958300000000000      0.121800000000000
H       5.069500000000000     -0.840000000000000     -1.221200000000000
H      -4.206900000000000      0.366900000000000     -1.376700000000000
H       3.839600000000000      0.777000000000000     -2.047500000000000
H       2.582900000000000      1.970100000000000     -1.807700000000000
H       2.162400000000000      0.321100000000000     -2.282600000000000
H       5.263800000000000      1.833000000000000     -0.597100000000000
H       5.537300000000000      2.219000000000000      1.092800000000000
H       5.473400000000000     -0.144400000000000      1.733000000000000
H      -4.343000000000000      2.296700000000000      1.011800000000000
H      -5.432700000000000      2.430600000000000     -0.385900000000000
H      -3.726600000000000      2.573900000000000     -0.610500000000000
H       7.402200000000000     -0.854000000000000      0.578800000000000
H       7.517100000000000      0.729000000000000      0.961400000000000
H      -6.900200000000000      0.984700000000000     -1.101300000000000
H      -7.470200000000000     -0.622900000000000     -0.636300000000000
H      -6.240400000000000     -0.472700000000000     -1.874100000000000
H      -6.472000000000000      1.342200000000000      1.332900000000000
H      -6.830900000000000     -0.321900000000000      1.749300000000000
H      -5.267000000000000      0.320600000000000      2.164300000000000
