67

O       9.943099999999999      0.016200000000000     -0.307500000000000
O      11.251799999999999     -0.639700000000000      1.479600000000000
C      -7.032600000000000     -1.247200000000000     -0.180000000000000
C      -6.481700000000000      0.190900000000000     -0.274300000000000
C      -8.505200000000000     -1.262800000000000      0.309100000000000
C      -8.722200000000001     -0.341700000000000      1.498100000000000
C      -7.117600000000000      1.243300000000000      0.297200000000000
C      -8.376600000000000      1.092600000000000      1.123100000000000
C      -5.182700000000000      0.354900000000000     -1.032700000000000
C      -6.165100000000000     -2.067500000000000      0.800200000000000
C      -7.013300000000000     -1.948500000000000     -1.556000000000000
C      -3.938500000000000      0.183500000000000     -0.158100000000000
C      -2.631700000000000      0.420300000000000     -0.921700000000000
C      -6.676600000000000      2.680100000000000      0.166600000000000
C      -1.415400000000000      0.210100000000000     -0.017100000000000
C      -0.109500000000000      0.479000000000000     -0.768700000000000
C       1.106100000000000      0.230700000000000      0.127200000000000
C       2.445400000000000      0.412300000000000     -0.595000000000000
C       3.657100000000000      0.090100000000000      0.282900000000000
C       4.997700000000000      0.274200000000000     -0.437200000000000
C       6.249100000000000     -0.089100000000000      0.368000000000000
C       7.552400000000000      0.137300000000000     -0.395500000000000
C       8.766800000000000     -0.199100000000000      0.459800000000000
C      11.125700000000000     -0.244500000000000      0.328500000000000
C      12.273400000000001      0.024800000000000     -0.596900000000000
H      -9.172100000000000     -0.944700000000000     -0.504600000000000
H      -8.814399999999999     -2.281400000000000      0.575200000000000
H      -9.765700000000001     -0.394000000000000      1.829400000000000
H      -8.107799999999999     -0.665900000000000      2.346300000000000
H      -9.210000000000001      1.525700000000000      0.555100000000000
H      -8.288000000000000      1.673500000000000      2.049300000000000
H      -5.120500000000000     -0.335500000000000     -1.877800000000000
H      -5.144600000000000      1.332600000000000     -1.525900000000000
H      -5.227400000000000     -2.396800000000000      0.342900000000000
H      -5.927800000000000     -1.506000000000000      1.710600000000000
H      -6.683000000000000     -2.984200000000000      1.107200000000000
H      -7.465400000000000     -1.320100000000000     -2.332000000000000
H      -6.003300000000000     -2.221500000000000     -1.879400000000000
H      -7.582500000000000     -2.885600000000000     -1.520300000000000
H      -3.895200000000000     -0.817600000000000      0.273800000000000
H      -3.987800000000000      0.884400000000000      0.685200000000000
H      -2.577000000000000     -0.264600000000000     -1.776500000000000
H      -2.622900000000000      1.441100000000000     -1.322300000000000
H      -7.365100000000000      3.223800000000000     -0.488400000000000
H      -5.664300000000000      2.809900000000000     -0.219400000000000
H      -6.685700000000000      3.166100000000000      1.148800000000000
H      -1.416400000000000     -0.818300000000000      0.364000000000000
H      -1.481400000000000      0.877100000000000      0.851100000000000
H      -0.052800000000000     -0.172500000000000     -1.649100000000000
H      -0.093800000000000      1.514200000000000     -1.130100000000000
H       1.055500000000000     -0.790400000000000      0.525400000000000
H       1.067300000000000      0.908300000000000      0.989100000000000
H       2.465500000000000     -0.233200000000000     -1.481700000000000
H       2.522000000000000      1.445900000000000     -0.954100000000000
H       3.640000000000000      0.728700000000000      1.174500000000000
H       3.581300000000000     -0.946200000000000      0.634300000000000
H       5.078500000000000      1.320300000000000     -0.759200000000000
H       4.988300000000000     -0.329900000000000     -1.353500000000000
H       6.260300000000000      0.506500000000000      1.289300000000000
H       6.183700000000000     -1.140900000000000      0.672700000000000
H       7.620400000000000      1.180300000000000     -0.728800000000000
H       7.566600000000000     -0.471200000000000     -1.308200000000000
H       8.724299999999999     -1.248400000000000      0.774900000000000
H       8.788500000000001      0.441800000000000      1.349100000000000
H      13.213800000000001     -0.184600000000000     -0.079100000000000
H      12.204599999999999     -0.626800000000000     -1.471600000000000
H      12.267899999999999      1.075500000000000     -0.897600000000000
