67

O      -5.827900000000000     -0.671400000000000      0.658500000000000
O      -3.554500000000000     -1.175200000000000      0.199000000000000
C      -5.119100000000000     -1.077500000000000     -1.636500000000000
C      -4.914000000000000     -1.406900000000000     -0.158400000000000
C      -5.047300000000000      0.426500000000000     -1.886100000000000
C      -5.974500000000000      1.166500000000000     -0.930100000000000
C      -0.807300000000000     -2.106900000000000      0.580300000000000
C       0.678800000000000     -1.861700000000000      0.857600000000000
C      -1.729100000000000     -1.635500000000000      1.709100000000000
C      -5.711500000000000      0.743200000000000      0.508100000000000
C       1.604400000000000     -2.394600000000000     -0.238300000000000
C      -3.199900000000000     -1.872600000000000      1.384200000000000
C       3.075100000000000     -2.184000000000000      0.129800000000000
C       4.006300000000000     -2.688200000000000     -0.979100000000000
C       2.550400000000000      2.623500000000000      0.503900000000000
C       1.218200000000000      2.431100000000000     -0.227800000000000
C       3.730300000000000      1.963100000000000     -0.213700000000000
C       0.036200000000000      3.080200000000000      0.498200000000000
C       5.039700000000000      2.173200000000000      0.558400000000000
C       5.488300000000000     -2.526000000000000     -0.628000000000000
C      -1.257700000000000      2.934200000000000     -0.303700000000000
C       6.244700000000000      1.503500000000000     -0.108400000000000
C      -2.425200000000000      3.617000000000000      0.391500000000000
C       5.838000000000000     -1.116000000000000     -0.410300000000000
C       6.057600000000000      0.054700000000000     -0.258300000000000
H      -6.109500000000000     -1.431200000000000     -1.948500000000000
H      -4.367600000000000     -1.584700000000000     -2.251700000000000
H      -5.145600000000000     -2.471100000000000     -0.027400000000000
H      -5.320600000000000      0.648800000000000     -2.923500000000000
H      -4.017700000000000      0.776400000000000     -1.742600000000000
H      -5.847700000000000      2.248800000000000     -1.037900000000000
H      -7.012300000000000      0.926100000000000     -1.191600000000000
H      -0.968500000000000     -3.179200000000000      0.413100000000000
H      -1.073700000000000     -1.598500000000000     -0.354400000000000
H       0.847700000000000     -0.785800000000000      0.986800000000000
H       0.942100000000000     -2.337700000000000      1.810600000000000
H      -1.565800000000000     -0.562300000000000      1.866700000000000
H      -1.472300000000000     -2.151100000000000      2.641300000000000
H      -6.447400000000000      1.208400000000000      1.171600000000000
H      -4.719600000000000      1.068100000000000      0.843100000000000
H       1.413800000000000     -3.463300000000000     -0.393600000000000
H       1.380900000000000     -1.883900000000000     -1.182700000000000
H      -3.815600000000000     -1.517800000000000      2.218600000000000
H      -3.375100000000000     -2.947100000000000      1.253000000000000
H       3.244600000000000     -1.124500000000000      0.332800000000000
H       3.296400000000000     -2.723900000000000      1.058900000000000
H       3.787500000000000     -2.147800000000000     -1.909100000000000
H       3.805000000000000     -3.749100000000000     -1.170800000000000
H       2.747900000000000      3.696700000000000      0.616000000000000
H       2.464300000000000      2.208100000000000      1.515700000000000
H       1.302800000000000      2.856100000000000     -1.235600000000000
H       1.022700000000000      1.359100000000000     -0.351900000000000
H       3.514700000000000      0.901000000000000     -0.343200000000000
H       3.830700000000000      2.391700000000000     -1.218400000000000
H      -0.085300000000000      2.619800000000000      1.486000000000000
H       0.248400000000000      4.143900000000000      0.660600000000000
H       5.240000000000000      3.247200000000000      0.654500000000000
H       4.924000000000000      1.778100000000000      1.576000000000000
H       5.722000000000000     -3.109500000000000      0.269900000000000
H       6.096800000000000     -2.934200000000000     -1.443000000000000
H      -1.491200000000000      1.871800000000000     -0.441900000000000
H      -1.130400000000000      3.371100000000000     -1.301000000000000
H       7.140400000000000      1.698400000000000      0.492300000000000
H       6.416100000000000      1.955700000000000     -1.092200000000000
H      -2.601300000000000      3.181200000000000      1.380300000000000
H      -3.339200000000000      3.498200000000000     -0.198900000000000
H      -2.236900000000000      4.688100000000000      0.515400000000000
