67

O      -5.519200000000000     -1.054100000000000     -1.440800000000000
O      -8.392799999999999     -1.652500000000000     -0.602000000000000
C      -6.417100000000000     -0.190600000000000     -0.732400000000000
C      -7.330800000000000     -1.095800000000000      0.179700000000000
C      -5.619800000000000      0.818500000000000      0.103100000000000
C      -4.312600000000000      1.333600000000000     -0.429700000000000
C      -3.097100000000000      0.551800000000000      0.074400000000000
C      -1.766000000000000      1.128900000000000     -0.420100000000000
C      -7.237800000000000      0.580500000000000     -1.786400000000000
C      -0.583300000000000      0.299200000000000      0.085700000000000
C      -7.965100000000000     -0.298700000000000      1.298800000000000
C       0.775900000000000      0.827400000000000     -0.383600000000000
C      -6.573000000000000     -2.278600000000000      0.808700000000000
C      -6.109800000000000      1.258200000000000      1.278000000000000
C       1.991700000000000     -0.009600000000000      0.026800000000000
C       3.355100000000000      0.558800000000000     -0.379600000000000
C       4.574200000000000     -0.241000000000000      0.089700000000000
C      -7.380200000000000      0.803400000000000      1.788300000000000
C       5.907800000000000      0.383200000000000     -0.326400000000000
C       7.089400000000000     -0.451200000000000      0.172800000000000
C       8.424400000000000      0.187400000000000     -0.214200000000000
C       9.606000000000000     -0.629100000000000      0.314200000000000
C      10.939399999999999      0.029300000000000     -0.046700000000000
C      12.156700000000001     -0.761100000000000      0.437800000000000
C      13.483800000000000     -0.097800000000000      0.103900000000000
H      -4.325300000000000      1.337200000000000     -1.526200000000000
H      -4.196800000000000      2.387300000000000     -0.141200000000000
H      -3.095700000000000      0.545200000000000      1.172000000000000
H      -3.175400000000000     -0.495100000000000     -0.243700000000000
H      -1.663100000000000      2.165000000000000     -0.076300000000000
H      -1.759200000000000      1.147800000000000     -1.516400000000000
H      -7.739300000000000     -0.103800000000000     -2.480300000000000
H      -7.994000000000000      1.227000000000000     -1.329000000000000
H      -6.588000000000000      1.205900000000000     -2.410100000000000
H      -0.596200000000000      0.273900000000000      1.182300000000000
H      -0.697500000000000     -0.737000000000000     -0.256000000000000
H      -8.897900000000000     -0.645600000000000      1.734700000000000
H       0.905100000000000      1.847200000000000      0.000400000000000
H       0.766200000000000      0.908800000000000     -1.477900000000000
H      -6.247200000000000     -2.992100000000000      0.043300000000000
H      -7.221200000000000     -2.847700000000000      1.487000000000000
H      -5.695000000000000     -1.951000000000000      1.375500000000000
H      -5.572200000000000      1.988300000000000      1.874500000000000
H       1.887800000000000     -1.016100000000000     -0.397300000000000
H       1.977100000000000     -0.131000000000000      1.117300000000000
H       3.386300000000000      0.644100000000000     -1.473100000000000
H       3.436300000000000      1.580800000000000      0.012000000000000
H       4.507600000000000     -1.259300000000000     -0.312700000000000
H       4.541000000000000     -0.330000000000000      1.182600000000000
H      -7.829400000000000      1.355700000000000      2.606000000000000
H       5.949500000000000      0.466100000000000     -1.419100000000000
H       5.976400000000000      1.400100000000000      0.078500000000000
H      -6.053400000000000     -1.654100000000000     -1.989200000000000
H       7.029800000000000     -1.462900000000000     -0.246500000000000
H       7.033200000000000     -0.549400000000000      1.263900000000000
H      -8.922900000000000     -2.236400000000000     -0.032700000000000
H       8.490900000000000      0.268600000000000     -1.305900000000000
H       8.473800000000001      1.206000000000000      0.189600000000000
H       9.531000000000001     -0.727200000000000      1.403900000000000
H       9.571000000000000     -1.641700000000000     -0.105500000000000
H      11.002100000000000      0.148800000000000     -1.135500000000000
H      10.972400000000000      1.037700000000000      0.384400000000000
H      12.093100000000000     -0.895300000000000      1.524200000000000
H      12.139200000000001     -1.763100000000000     -0.007400000000000
H      13.599600000000001      0.019800000000000     -0.978200000000000
H      13.552500000000000      0.892000000000000      0.566200000000000
H      14.316300000000000     -0.705200000000000      0.472300000000000
