67

O       5.845100000000000      0.647000000000000      0.687300000000000
O       3.572500000000000      1.147100000000000      0.219800000000000
C       5.167500000000000      1.178000000000000     -1.591600000000000
C       4.934100000000000      1.417200000000000     -0.100400000000000
C       5.121000000000000     -0.309400000000000     -1.930200000000000
C       6.043100000000000     -1.092100000000000     -1.003700000000000
C       0.807200000000000      2.018700000000000      0.608500000000000
C      -0.683500000000000      1.784900000000000      0.870400000000000
C       1.716800000000000      1.493700000000000      1.723400000000000
C      -1.596400000000000      2.370300000000000     -0.209400000000000
C       5.751200000000000     -0.757600000000000      0.452200000000000
C       3.189200000000000      1.768800000000000      1.437800000000000
C      -3.071500000000000      2.167500000000000      0.144600000000000
C      -3.990300000000000      2.724600000000000     -0.949300000000000
C      -2.589200000000000     -2.616900000000000      0.478400000000000
C      -1.250500000000000     -2.426900000000000     -0.241800000000000
C      -3.758700000000000     -1.937800000000000     -0.238900000000000
C      -0.079000000000000     -3.094800000000000      0.484000000000000
C      -5.074900000000000     -2.146000000000000      0.521800000000000
C      -5.475900000000000      2.570900000000000     -0.610100000000000
C       1.221500000000000     -2.950000000000000     -0.307500000000000
C      -6.269600000000000     -1.458100000000000     -0.144800000000000
C       2.378500000000000     -3.651200000000000      0.387300000000000
C      -5.839000000000000      1.161400000000000     -0.412000000000000
C      -6.069500000000000     -0.009300000000000     -0.275700000000000
H       6.157800000000000      1.562500000000000     -1.865600000000000
H       4.419000000000000      1.710600000000000     -2.188700000000000
H       5.148700000000000      2.474900000000000      0.096500000000000
H       5.414000000000000     -0.466700000000000     -2.974000000000000
H       4.094300000000000     -0.680600000000000     -1.824600000000000
H       5.933300000000000     -2.167800000000000     -1.176700000000000
H       7.081600000000000     -0.823300000000000     -1.233200000000000
H       1.073100000000000      1.541900000000000     -0.342900000000000
H       0.982400000000000      3.094500000000000      0.482200000000000
H      -0.868500000000000      0.708000000000000      0.962000000000000
H      -0.944500000000000      2.231000000000000      1.838400000000000
H       1.564200000000000      0.411400000000000      1.816600000000000
H       1.439400000000000      1.952000000000000      2.679300000000000
H      -1.389900000000000      3.440900000000000     -0.325300000000000
H      -1.375600000000000      1.890600000000000     -1.170500000000000
H       6.483000000000000     -1.251300000000000      1.099600000000000
H       4.758800000000000     -1.114800000000000      0.750900000000000
H       3.351600000000000      2.851300000000000      1.372800000000000
H       3.796300000000000      1.373600000000000      2.260100000000000
H      -3.255800000000000      1.105200000000000      0.311600000000000
H      -3.289100000000000      2.678300000000000      1.090900000000000
H      -3.772900000000000      3.788300000000000     -1.104700000000000
H      -3.775700000000000      2.212600000000000     -1.896100000000000
H      -2.796600000000000     -3.689600000000000      0.576300000000000
H      -2.506500000000000     -2.214300000000000      1.495700000000000
H      -1.045100000000000     -1.355700000000000     -0.353700000000000
H      -1.332000000000000     -2.840200000000000     -1.254900000000000
H      -3.856200000000000     -2.355400000000000     -1.248600000000000
H      -3.533100000000000     -0.877400000000000     -0.357700000000000
H       0.039700000000000     -2.647400000000000      1.478200000000000
H      -0.301200000000000     -4.158600000000000      0.632000000000000
H      -5.284900000000000     -3.219300000000000      0.603700000000000
H      -4.962800000000000     -1.763900000000000      1.544800000000000
H      -6.076100000000000      2.996300000000000     -1.422400000000000
H      -5.709000000000000      3.143900000000000      0.294800000000000
H       1.097400000000000     -3.373600000000000     -1.310900000000000
H       1.465000000000000     -1.888100000000000     -0.431000000000000
H      -6.438200000000000     -1.896800000000000     -1.135100000000000
H      -7.171000000000000     -1.652700000000000      0.447500000000000
H       3.297800000000000     -3.531800000000000     -0.194700000000000
H       2.180900000000000     -4.722300000000000      0.495600000000000
H       2.550500000000000     -3.230000000000000      1.382900000000000
