67

N       5.589300000000000     -0.002400000000000      0.362900000000000
N      -6.965200000000000     -0.476600000000000      0.494000000000000
C       0.952600000000000      1.040900000000000      0.170300000000000
C       1.793800000000000     -0.137900000000000     -0.366200000000000
C      -0.502300000000000      1.003900000000000     -0.310500000000000
C      -1.154000000000000     -0.330300000000000      0.180000000000000
C      -2.671900000000000     -0.426800000000000     -0.226300000000000
C       3.164600000000000      0.238500000000000      0.247700000000000
C      -3.389300000000000      0.836700000000000      0.349000000000000
C       1.180900000000000     -1.437200000000000      0.174900000000000
C      -0.304600000000000     -1.569200000000000     -0.209000000000000
C       1.807500000000000      2.264800000000000     -0.144300000000000
C      -1.289800000000000      2.224700000000000      0.186100000000000
C       3.254400000000000      1.767600000000000      0.032100000000000
C      -2.773800000000000      2.143300000000000     -0.164200000000000
C      -3.332700000000000     -1.678500000000000      0.417900000000000
C       1.875500000000000     -0.205600000000000     -1.912000000000000
C      -4.911200000000000      0.812500000000000      0.135700000000000
C       4.379000000000000     -0.507000000000000     -0.286800000000000
C      -2.823100000000000     -0.532100000000000     -1.765600000000000
C      -4.856100000000000     -1.723000000000000      0.253300000000000
C      -5.527400000000000     -0.444100000000000      0.761300000000000
C       4.248700000000000     -2.011300000000000     -0.057200000000000
C       6.768700000000000     -0.707000000000000     -0.137800000000000
C       5.486200000000000     -0.144100000000000      1.814500000000000
H       0.918300000000000      0.971700000000000      1.270800000000000
H      -0.513200000000000      1.039700000000000     -1.404300000000000
H      -1.130800000000000     -0.298900000000000      1.281200000000000
H       3.052300000000000      0.059000000000000      1.325500000000000
H      -3.236500000000000      0.831100000000000      1.439900000000000
H       1.262700000000000     -1.469300000000000      1.269000000000000
H       1.679900000000000     -2.330300000000000     -0.202500000000000
H      -0.379700000000000     -1.761500000000000     -1.283700000000000
H      -0.697600000000000     -2.461000000000000      0.291900000000000
H       1.590000000000000      3.100000000000000      0.529300000000000
H       1.646000000000000      2.615100000000000     -1.169900000000000
H      -0.874900000000000      3.142300000000000     -0.247000000000000
H      -1.184400000000000      2.315600000000000      1.274900000000000
H       3.840800000000000      2.028200000000000     -0.856600000000000
H       3.726700000000000      2.257500000000000      0.890500000000000
H      -3.287900000000000      2.999800000000000      0.289100000000000
H      -2.909600000000000      2.239600000000000     -1.247400000000000
H      -3.098800000000000     -1.703500000000000      1.490500000000000
H      -2.918300000000000     -2.597900000000000     -0.012300000000000
H       2.430200000000000     -1.088500000000000     -2.245000000000000
H       0.890900000000000     -0.269700000000000     -2.382800000000000
H       2.371900000000000      0.669500000000000     -2.342900000000000
H      -5.355700000000000      1.702500000000000      0.600800000000000
H      -5.152200000000000      0.874600000000000     -0.932400000000000
H       4.480300000000000     -0.322000000000000     -1.363200000000000
H      -2.405500000000000     -1.472000000000000     -2.141600000000000
H      -3.868700000000000     -0.511200000000000     -2.084700000000000
H      -2.321900000000000      0.281000000000000     -2.296100000000000
H      -5.109500000000000     -1.894200000000000     -0.800100000000000
H      -5.245200000000000     -2.589200000000000      0.803700000000000
H      -5.390200000000000     -0.392300000000000      1.849200000000000
H       5.171400000000000     -2.580500000000000     -0.189500000000000
H       3.844200000000000     -2.264500000000000      0.928100000000000
H       3.592700000000000     -2.445800000000000     -0.816300000000000
H      -7.407900000000000      0.349500000000000      0.894500000000000
H      -7.382300000000000     -1.281700000000000      0.959100000000000
H       7.660500000000000     -0.120500000000000      0.114700000000000
H       6.763600000000000     -0.787600000000000     -1.230900000000000
H       6.923600000000000     -1.699700000000000      0.297700000000000
H       4.777000000000000      0.555500000000000      2.265400000000000
H       6.447200000000000      0.133900000000000      2.267900000000000
H       5.270000000000000     -1.159100000000000      2.161700000000000
