67

O       4.734000000000000      2.453600000000000      2.001100000000000
O       2.626800000000000      1.893000000000000      1.351600000000000
C      -3.132600000000000      1.089200000000000      0.679800000000000
C      -2.390400000000000      0.206800000000000     -0.320000000000000
C      -2.281600000000000     -1.132400000000000     -0.153000000000000
C      -3.360600000000000      0.397500000000000      2.033700000000000
C      -2.886400000000000     -1.851700000000000      1.035800000000000
C      -3.870500000000000     -1.022900000000000      1.855400000000000
C      -1.568400000000000     -2.061500000000000     -1.102000000000000
C      -0.352300000000000     -2.797300000000000     -0.500900000000000
C      -1.770600000000000      0.965400000000000     -1.468200000000000
C      -4.458000000000000      1.580400000000000      0.084100000000000
C       0.685400000000000     -1.795300000000000      0.047900000000000
C      -0.343600000000000      1.389900000000000     -1.139900000000000
C       1.843600000000000     -2.468600000000000      0.794300000000000
C       0.260700000000000     -3.777100000000000     -1.507100000000000
C       0.349200000000000      2.112000000000000     -2.311000000000000
C      -5.186100000000000      2.492100000000000      1.049000000000000
C       2.829000000000000     -1.426800000000000      1.337500000000000
C       3.515300000000000     -0.595000000000000      0.231700000000000
C       0.410500000000000      1.186000000000000     -3.528600000000000
C       1.758100000000000      2.587200000000000     -1.953100000000000
C       4.502000000000000      0.415300000000000      0.847700000000000
C       4.263600000000000     -1.487300000000000     -0.764200000000000
C       3.822800000000000      1.647600000000000      1.398300000000000
H      -2.506300000000000      1.968300000000000      0.885900000000000
H      -4.017000000000000      0.957800000000000      2.703600000000000
H      -2.396200000000000      0.349300000000000      2.559900000000000
H      -3.401300000000000     -2.760800000000000      0.702200000000000
H      -2.073600000000000     -2.169300000000000      1.700600000000000
H      -4.850100000000000     -1.013200000000000      1.363000000000000
H      -4.018300000000000     -1.494100000000000      2.834000000000000
H      -2.295700000000000     -2.805400000000000     -1.455100000000000
H      -1.231300000000000     -1.549300000000000     -2.007500000000000
H      -0.705700000000000     -3.407400000000000      0.340700000000000
H      -2.356400000000000      1.858900000000000     -1.708800000000000
H      -1.822900000000000      0.360600000000000     -2.375900000000000
H      -4.279000000000000      2.146200000000000     -0.836600000000000
H      -5.109000000000000      0.742600000000000     -0.192500000000000
H       1.094700000000000     -1.265700000000000     -0.815400000000000
H       0.216300000000000     -1.074400000000000      0.724500000000000
H      -0.356800000000000      2.066800000000000     -0.275700000000000
H       0.265700000000000      0.544200000000000     -0.845900000000000
H       2.368000000000000     -3.191700000000000      0.164600000000000
H       1.437800000000000     -3.035300000000000      1.641500000000000
H       1.000100000000000     -4.431200000000000     -1.036200000000000
H       0.746700000000000     -3.243900000000000     -2.331000000000000
H      -0.512800000000000     -4.424200000000000     -1.934700000000000
H      -0.242500000000000      2.996600000000000     -2.578900000000000
H      -5.982100000000000      3.026300000000000      0.518200000000000
H      -4.519800000000000      3.243900000000000      1.483900000000000
H      -5.675000000000000      1.936900000000000      1.854600000000000
H       2.302400000000000     -0.761300000000000      2.032000000000000
H       3.591500000000000     -1.951100000000000      1.927500000000000
H       2.760500000000000     -0.035400000000000     -0.327700000000000
H       0.842400000000000      0.212700000000000     -3.271500000000000
H       1.030700000000000      1.627600000000000     -4.316900000000000
H      -0.577400000000000      1.023600000000000     -3.968600000000000
H       2.422400000000000      1.744300000000000     -1.743300000000000
H       2.194900000000000      3.160900000000000     -2.777500000000000
H       1.735800000000000      3.235400000000000     -1.071300000000000
H       5.198800000000000      0.770500000000000      0.078600000000000
H       5.082900000000000     -0.057200000000000      1.648000000000000
H       4.982300000000000     -2.136700000000000     -0.253100000000000
H       4.814700000000000     -0.881800000000000     -1.492200000000000
H       3.576900000000000     -2.116300000000000     -1.338200000000000
H       4.317100000000000      3.255500000000000      2.382400000000000
