68

O      -4.267000000000000     -1.770200000000000      1.278400000000000
N      -2.771200000000000     -2.355500000000000     -0.413400000000000
C      -0.011000000000000     -1.850400000000000      0.751200000000000
C      -0.207000000000000     -3.315800000000000      1.144800000000000
C       0.290100000000000     -1.619700000000000     -0.731000000000000
C      -1.108800000000000     -4.160500000000000      0.247600000000000
C      -0.900900000000000     -1.101900000000000     -1.542200000000000
C      -2.559700000000000     -3.692400000000000      0.153700000000000
C      -2.094200000000000     -2.051600000000000     -1.684000000000000
C       0.773600000000000      2.856100000000000      0.364800000000000
C       2.227400000000000      2.750500000000000     -0.109000000000000
C       0.054300000000000      4.097000000000000     -0.169900000000000
C       2.939200000000000      1.497000000000000      0.405900000000000
C      -1.403400000000000      4.199200000000000      0.291600000000000
C       4.389300000000000      1.382200000000000     -0.075900000000000
C      -2.338600000000000      3.084500000000000     -0.190300000000000
C       5.148700000000000      0.135400000000000      0.388400000000000
C      -3.792400000000000      3.275600000000000      0.253700000000000
C      -3.699700000000000     -1.516000000000000      0.213900000000000
C       6.571600000000000      0.046300000000000     -0.167200000000000
C      -4.727500000000000      2.160600000000000     -0.228900000000000
C      -4.031300000000000     -0.232100000000000     -0.438200000000000
C       7.250100000000000     -1.257600000000000      0.254500000000000
C      -4.383000000000000      0.807900000000000      0.327000000000000
C       8.651400000000001     -1.368700000000000     -0.325400000000000
H       0.841100000000000     -1.476200000000000      1.334500000000000
H      -0.865100000000000     -1.247300000000000      1.078000000000000
H       0.779800000000000     -3.796600000000000      1.167600000000000
H      -0.582900000000000     -3.352700000000000      2.174900000000000
H       1.071400000000000     -0.856600000000000     -0.805200000000000
H       0.713200000000000     -2.515300000000000     -1.199100000000000
H      -1.117200000000000     -5.181100000000000      0.652600000000000
H      -0.665900000000000     -4.254800000000000     -0.748900000000000
H      -0.540300000000000     -0.866400000000000     -2.551600000000000
H      -1.232800000000000     -0.150500000000000     -1.110000000000000
H      -3.117400000000000     -4.387600000000000     -0.486000000000000
H      -3.015700000000000     -3.756300000000000      1.147700000000000
H      -2.821200000000000     -1.612000000000000     -2.373400000000000
H      -1.781100000000000     -2.986900000000000     -2.160900000000000
H       0.749600000000000      2.866700000000000      1.461300000000000
H       0.244400000000000      1.952200000000000      0.043100000000000
H       2.778900000000000      3.640000000000000      0.219400000000000
H       2.248400000000000      2.750600000000000     -1.205800000000000
H       0.085200000000000      4.094900000000000     -1.266100000000000
H       0.591400000000000      4.994000000000000      0.161500000000000
H       2.926900000000000      1.499300000000000      1.502600000000000
H       2.388500000000000      0.608500000000000      0.087600000000000
H      -1.427200000000000      4.236600000000000      1.388000000000000
H      -1.800100000000000      5.160900000000000     -0.057800000000000
H       4.393200000000000      1.404500000000000     -1.173200000000000
H       4.941500000000000      2.271700000000000      0.252800000000000
H      -1.971800000000000      2.125900000000000      0.190800000000000
H      -2.298400000000000      3.029900000000000     -1.285000000000000
H       5.183400000000000      0.124100000000000      1.484600000000000
H       4.583900000000000     -0.753600000000000      0.080900000000000
H      -3.833100000000000      3.339700000000000      1.348400000000000
H      -4.163000000000000      4.233300000000000     -0.131900000000000
H       7.158000000000000      0.903100000000000      0.185700000000000
H       6.540100000000000      0.104800000000000     -1.262000000000000
H      -5.751700000000000      2.403200000000000      0.079300000000000
H      -4.730000000000000      2.142500000000000     -1.325900000000000
H      -3.985700000000000     -0.132100000000000     -1.513800000000000
H       7.306200000000000     -1.310900000000000      1.347900000000000
H       6.654800000000000     -2.114200000000000     -0.082400000000000
H      -4.425000000000000      0.715400000000000      1.409500000000000
H       9.283500000000000     -0.542700000000000      0.015800000000000
H       8.625600000000000     -1.352800000000000     -1.419700000000000
H       9.118700000000000     -2.306900000000000     -0.010200000000000
