68

O      -5.284700000000000     -1.726100000000000      2.159000000000000
N      -2.932800000000000      0.281900000000000     -0.724000000000000
C      -4.352600000000000     -1.680000000000000     -0.077200000000000
C      -4.087000000000000      0.264100000000000      1.517100000000000
C      -3.799400000000000     -0.804700000000000     -1.218300000000000
C      -3.536300000000000      1.086300000000000      0.345100000000000
C      -4.994600000000000     -0.878700000000000      1.051200000000000
C      -3.169100000000000     -2.571000000000000      0.332700000000000
C      -4.858100000000000      1.315500000000000      2.323600000000000
C      -3.014900000000000     -1.873800000000000     -1.998200000000000
C      -4.713900000000000      1.997800000000000     -0.030100000000000
C      -2.315400000000000     -2.711400000000000     -0.929400000000000
C      -5.417000000000000      2.301300000000000      1.294900000000000
C      -2.444400000000000      1.136600000000000     -1.808600000000000
C      -1.078400000000000      1.745100000000000     -1.486200000000000
C       0.004000000000000      0.691900000000000     -1.230300000000000
C       1.366000000000000      1.346200000000000     -0.982700000000000
C       2.441800000000000      0.295600000000000     -0.699100000000000
C       3.820500000000000      0.897800000000000     -0.412800000000000
C       4.912800000000000     -0.154200000000000     -0.201600000000000
C       6.278700000000000      0.504600000000000      0.009000000000000
C       7.409200000000000     -0.500600000000000      0.247800000000000
C       8.760300000000001      0.159400000000000      0.531300000000000
C       9.834300000000001     -0.886700000000000      0.833300000000000
C      11.170999999999999     -0.236800000000000      1.153500000000000
H      -5.124300000000000     -2.349300000000000     -0.486800000000000
H      -3.276400000000000     -0.139100000000000      2.136600000000000
H      -4.617000000000000     -0.402500000000000     -1.828600000000000
H      -2.749100000000000      1.726400000000000      0.767600000000000
H      -5.951900000000000     -0.478200000000000      0.695500000000000
H      -3.515800000000000     -3.546700000000000      0.689600000000000
H      -2.570200000000000     -2.126100000000000      1.134400000000000
H      -4.165000000000000      1.847400000000000      2.987400000000000
H      -5.645600000000000      0.888100000000000      2.952200000000000
H      -2.302800000000000     -1.493400000000000     -2.734000000000000
H      -3.721600000000000     -2.508700000000000     -2.549200000000000
H      -5.416500000000000      1.501200000000000     -0.708700000000000
H      -4.387500000000000      2.923600000000000     -0.514900000000000
H      -1.305000000000000     -2.331400000000000     -0.740800000000000
H      -2.221300000000000     -3.756000000000000     -1.242600000000000
H      -6.500600000000000      2.183700000000000      1.185400000000000
H      -5.231300000000000      3.332500000000000      1.614700000000000
H      -3.154100000000000      1.927200000000000     -2.075300000000000
H      -2.314200000000000      0.571000000000000     -2.737400000000000
H      -5.856300000000000     -2.443700000000000      1.836600000000000
H      -0.773900000000000      2.367700000000000     -2.337300000000000
H      -1.149900000000000      2.421300000000000     -0.626600000000000
H      -0.263600000000000      0.083200000000000     -0.358700000000000
H       0.072100000000000      0.015800000000000     -2.091100000000000
H       1.294800000000000      2.033900000000000     -0.131400000000000
H       1.655600000000000      1.941300000000000     -1.857000000000000
H       2.136700000000000     -0.317000000000000      0.158300000000000
H       2.517500000000000     -0.380700000000000     -1.559800000000000
H       4.104100000000000      1.546300000000000     -1.251200000000000
H       3.755700000000000      1.538900000000000      0.475100000000000
H       4.661700000000000     -0.774200000000000      0.667000000000000
H       4.958900000000000     -0.818800000000000     -1.072500000000000
H       6.219400000000000      1.185100000000000      0.867700000000000
H       6.526200000000000      1.119400000000000     -0.865300000000000
H       7.138300000000000     -1.142500000000000      1.095500000000000
H       7.500000000000000     -1.155000000000000     -0.627900000000000
H       9.061999999999999      0.764400000000000     -0.332100000000000
H       8.661799999999999      0.840500000000000      1.385300000000000
H       9.524500000000000     -1.504800000000000      1.684000000000000
H       9.954599999999999     -1.555300000000000     -0.027000000000000
H      11.525700000000001      0.365800000000000      0.311300000000000
H      11.091500000000000      0.412300000000000      2.031400000000000
H      11.923999999999999     -1.002500000000000      1.364400000000000
