68

O      -3.447100000000000     -2.479800000000000      0.058600000000000
N      -2.819600000000000     -0.278400000000000      0.135900000000000
C       4.855100000000000     -0.664100000000000      0.316700000000000
C       4.499400000000000      0.686200000000000      0.866300000000000
C       5.710500000000000     -0.036700000000000      1.378200000000000
C       4.009900000000000     -1.832200000000000      0.666200000000000
C       4.682400000000000      1.896700000000000      0.003100000000000
C       2.891300000000000     -2.065100000000000     -0.358400000000000
C       3.443100000000000      2.245300000000000     -0.823700000000000
C       2.002000000000000     -3.272200000000000     -0.047800000000000
C       2.206500000000000      2.523400000000000      0.035300000000000
C       0.838000000000000     -3.510100000000000     -1.014800000000000
C       0.986800000000000      2.837000000000000     -0.834600000000000
C      -0.190800000000000     -2.377700000000000     -1.020400000000000
C      -0.242700000000000      3.148200000000000      0.021900000000000
C      -1.373200000000000     -2.708100000000000     -1.932600000000000
C      -1.452300000000000      3.493100000000000     -0.850000000000000
C      -2.417300000000000     -1.598000000000000     -1.911300000000000
C      -2.702800000000000      3.842600000000000     -0.040500000000000
C      -2.898300000000000     -1.390200000000000     -0.522800000000000
C      -3.506500000000000     -0.586300000000000      1.406200000000000
C      -3.601900000000000     -2.107900000000000      1.422500000000000
C      -3.900200000000000      4.211600000000000     -0.902400000000000
C      -2.683600000000000     -0.049500000000000      2.572600000000000
C      -4.889000000000000      0.072100000000000      1.375800000000000
H       5.280300000000000     -0.736200000000000     -0.677100000000000
H       3.691200000000000      0.782900000000000      1.579500000000000
H       5.669800000000000     -0.439900000000000      2.383200000000000
H       6.690700000000000      0.322200000000000      1.087600000000000
H       4.645200000000000     -2.725200000000000      0.708900000000000
H       3.566500000000000     -1.715800000000000      1.663100000000000
H       4.934900000000000      2.747700000000000      0.647400000000000
H       5.530900000000000      1.761200000000000     -0.679300000000000
H       3.330400000000000     -2.191200000000000     -1.356100000000000
H       2.279400000000000     -1.156700000000000     -0.404500000000000
H       3.665100000000000      3.123800000000000     -1.441300000000000
H       3.226200000000000      1.417100000000000     -1.509900000000000
H       1.600200000000000     -3.167800000000000      0.968000000000000
H       2.629000000000000     -4.172600000000000     -0.039300000000000
H       1.962700000000000      1.655600000000000      0.656500000000000
H       2.410000000000000      3.363400000000000      0.710100000000000
H       1.233200000000000     -3.653100000000000     -2.027900000000000
H       0.342400000000000     -4.447200000000000     -0.732200000000000
H       1.209600000000000      3.694400000000000     -1.481300000000000
H       0.772200000000000      1.983800000000000     -1.489800000000000
H       0.273400000000000     -1.446700000000000     -1.364400000000000
H      -0.524400000000000     -2.213200000000000      0.010100000000000
H      -0.023100000000000      3.989400000000000      0.690300000000000
H      -0.481500000000000      2.285000000000000      0.654900000000000
H      -1.824500000000000     -3.658700000000000     -1.623000000000000
H      -1.019300000000000     -2.845300000000000     -2.961400000000000
H      -1.677200000000000      2.645100000000000     -1.508800000000000
H      -1.199800000000000      4.340500000000000     -1.499500000000000
H      -1.993400000000000     -0.662600000000000     -2.292900000000000
H      -3.270700000000000     -1.861800000000000     -2.544400000000000
H      -2.972100000000000      2.991700000000000      0.596000000000000
H      -2.478800000000000      4.681500000000000      0.629300000000000
H      -2.798400000000000     -2.583000000000000      1.996400000000000
H      -4.561700000000000     -2.474800000000000      1.799500000000000
H      -4.177300000000000      3.381200000000000     -1.559500000000000
H      -4.762800000000000      4.450900000000000     -0.272800000000000
H      -3.679100000000000      5.084000000000000     -1.525200000000000
H      -2.579900000000000      1.039900000000000      2.513600000000000
H      -3.149000000000000     -0.296600000000000      3.532600000000000
H      -1.670700000000000     -0.468300000000000      2.567900000000000
H      -4.804600000000000      1.159700000000000      1.270700000000000
H      -5.485300000000000     -0.288700000000000      0.529900000000000
H      -5.446300000000000     -0.137800000000000      2.295100000000000
