68

O       1.340700000000000      1.917000000000000      0.029100000000000
N       2.668200000000000      0.015300000000000      0.010700000000000
C       2.834900000000000     -1.417900000000000      0.006800000000000
C       3.894600000000000      0.775600000000000     -0.008500000000000
C       3.584200000000000     -1.874300000000000      1.261000000000000
C       3.549400000000000     -1.876900000000000     -1.267000000000000
C       4.011800000000000      1.636600000000000      1.251500000000000
C       3.983500000000000      1.628700000000000     -1.276600000000000
C       3.821100000000000     -3.382300000000000      1.257500000000000
C       3.784700000000000     -3.385200000000000     -1.267000000000000
C       5.276000000000000      2.492100000000000      1.232700000000000
C       5.248600000000000      2.482800000000000     -1.291800000000000
C       4.530000000000000     -3.838100000000000     -0.014800000000000
C       5.364400000000000      3.338800000000000     -0.033800000000000
C       1.441100000000000      0.687200000000000      0.026300000000000
C       0.195200000000000     -0.190300000000000      0.044600000000000
C      -1.098200000000000      0.627800000000000      0.060800000000000
C      -2.363200000000000     -0.232900000000000      0.003300000000000
C      -3.656700000000000      0.583800000000000      0.045500000000000
C      -4.886700000000000     -0.322700000000000     -0.037800000000000
C      -6.181700000000000      0.488100000000000      0.036900000000000
C      -7.411500000000000     -0.421400000000000     -0.012800000000000
C      -8.705700000000000      0.394300000000000      0.028800000000000
C      -9.968000000000000     -0.467000000000000     -0.049700000000000
C     -11.256600000000001      0.340900000000000     -0.035700000000000
H       1.863700000000000     -1.918300000000000      0.020600000000000
H       4.770000000000000      0.118700000000000     -0.016600000000000
H       4.560400000000000     -1.389800000000000      1.368000000000000
H       3.009600000000000     -1.601200000000000      2.155000000000000
H       2.950600000000000     -1.604500000000000     -2.145200000000000
H       4.522500000000000     -1.393000000000000     -1.400700000000000
H       3.161400000000000      2.312200000000000      1.382200000000000
H       4.025500000000000      0.997000000000000      2.142600000000000
H       3.975800000000000      0.983700000000000     -2.163800000000000
H       3.129500000000000      2.303000000000000     -1.390300000000000
H       2.859200000000000     -3.902400000000000      1.344900000000000
H       4.415900000000000     -3.665200000000000      2.133300000000000
H       4.353800000000000     -3.670600000000000     -2.159000000000000
H       2.820200000000000     -3.904700000000000     -1.325200000000000
H       6.157000000000000      1.841700000000000      1.298700000000000
H       5.295100000000000      3.143100000000000      2.114200000000000
H       5.249000000000000      3.127300000000000     -2.178200000000000
H       6.127600000000000      1.831200000000000     -1.371800000000000
H       4.621800000000000     -4.930000000000000     -0.014900000000000
H       5.548600000000000     -3.431300000000000     -0.029900000000000
H       6.313600000000000      3.886100000000000     -0.046000000000000
H       4.563100000000000      4.088000000000000     -0.027800000000000
H       0.223700000000000     -0.825800000000000      0.936600000000000
H       0.202500000000000     -0.822000000000000     -0.850800000000000
H      -1.102400000000000      1.321700000000000     -0.789500000000000
H      -1.123000000000000      1.247400000000000      0.966400000000000
H      -2.344100000000000     -0.833900000000000     -0.914300000000000
H      -2.354100000000000     -0.938200000000000      0.843600000000000
H      -3.667700000000000      1.297300000000000     -0.787200000000000
H      -3.688800000000000      1.167800000000000      0.973100000000000
H      -4.862300000000000     -1.049600000000000      0.783300000000000
H      -4.862100000000000     -0.892200000000000     -0.974800000000000
H      -6.197300000000000      1.073700000000000      0.964100000000000
H      -6.215300000000000      1.200600000000000     -0.796300000000000
H      -7.388300000000000     -1.021900000000000     -0.930200000000000
H      -7.390600000000000     -1.119800000000000      0.832300000000000
H      -8.709500000000000      1.108100000000000     -0.804400000000000
H      -8.731800000000000      0.986100000000000      0.952200000000000
H      -9.940000000000000     -1.069500000000000     -0.965400000000000
H      -9.980700000000001     -1.169300000000000      0.792300000000000
H     -12.123600000000000     -0.324400000000000     -0.093000000000000
H     -11.295999999999999      1.027200000000000     -0.887500000000000
H     -11.337800000000000      0.929400000000000      0.883700000000000
