68

N      -2.217200000000000      0.687000000000000      0.054800000000000
N      -6.948700000000000     -0.631100000000000     -0.309600000000000
C       0.043100000000000      1.276400000000000     -0.064900000000000
C       2.646800000000000     -0.270300000000000      0.164100000000000
C       1.250200000000000      1.812200000000000      0.723100000000000
C       0.535400000000000      0.322200000000000     -1.182700000000000
C       2.147300000000000      0.695500000000000      1.260500000000000
C       1.454000000000000     -0.790000000000000     -0.667500000000000
C      -0.781500000000000      2.426900000000000     -0.683700000000000
C      -0.994000000000000      0.606300000000000      0.854900000000000
C       3.349400000000000     -1.466600000000000      0.833700000000000
C       3.674200000000000      0.430100000000000     -0.747200000000000
C      -2.249300000000000      2.051800000000000     -0.470500000000000
C       3.379800000000000     -2.713700000000000     -0.054000000000000
C       4.555200000000000      1.431200000000000      0.005500000000000
C      -3.409700000000000      0.352500000000000      0.817900000000000
C      -4.569000000000000      0.032600000000000     -0.127600000000000
C       4.043700000000000     -3.860300000000000      0.712000000000000
C       4.115300000000000     -2.480200000000000     -1.374300000000000
C       5.365000000000000      0.777700000000000      1.126300000000000
C       5.500900000000000      2.114100000000000     -0.985200000000000
C      -5.863900000000000     -0.312900000000000      0.610900000000000
C      -8.244999999999999     -0.512400000000000      0.360300000000000
C      -6.782100000000000     -1.978800000000000     -0.856900000000000
H       1.826100000000000      2.485500000000000      0.078100000000000
H       0.906500000000000      2.424800000000000      1.566500000000000
H      -0.316600000000000     -0.140500000000000     -1.697100000000000
H       1.059000000000000      0.901000000000000     -1.952900000000000
H       1.537600000000000      0.115200000000000      1.968700000000000
H       2.915700000000000      1.130700000000000      1.897400000000000
H       1.749400000000000     -1.353300000000000     -1.553100000000000
H       0.846700000000000     -1.468600000000000     -0.055300000000000
H      -0.576300000000000      3.381100000000000     -0.183100000000000
H      -0.561500000000000      2.564200000000000     -1.748300000000000
H      -1.102600000000000      1.164300000000000      1.794800000000000
H      -0.746400000000000     -0.430200000000000      1.101100000000000
H       2.784100000000000     -1.738300000000000      1.737100000000000
H       4.357800000000000     -1.293400000000000      1.187000000000000
H       3.146800000000000      1.000400000000000     -1.520800000000000
H       4.339700000000000     -0.215600000000000     -1.303000000000000
H      -2.699500000000000      2.761100000000000      0.235500000000000
H      -2.805500000000000      2.106500000000000     -1.411700000000000
H       2.367600000000000     -3.070500000000000     -0.272800000000000
H       3.968200000000000      2.249100000000000      0.432000000000000
H      -3.684500000000000      1.147100000000000      1.522900000000000
H      -3.219700000000000     -0.546800000000000      1.418400000000000
H      -4.261700000000000     -0.798000000000000     -0.773900000000000
H      -4.764700000000000      0.888600000000000     -0.786100000000000
H       5.086400000000000     -3.627900000000000      0.955000000000000
H       3.514200000000000     -4.063800000000000      1.649000000000000
H       4.034200000000000     -4.782300000000000      0.120500000000000
H       5.129800000000000     -2.101500000000000     -1.208200000000000
H       3.588800000000000     -1.869700000000000     -2.107100000000000
H       4.246100000000000     -3.446400000000000     -1.880200000000000
H       6.089200000000000      1.507400000000000      1.512700000000000
H       4.796600000000000      0.475000000000000      2.005300000000000
H       5.965000000000000     -0.058900000000000      0.751200000000000
H       4.939100000000000      2.617400000000000     -1.779500000000000
H       6.112400000000000      2.871600000000000     -0.482800000000000
H       6.178900000000000      1.392200000000000     -1.453600000000000
H      -5.693400000000000     -1.126500000000000      1.328100000000000
H      -6.132200000000000      0.570300000000000      1.206500000000000
H      -9.061199999999999     -0.726300000000000     -0.338900000000000
H      -8.332900000000000     -1.195300000000000      1.213200000000000
H      -8.403100000000000      0.511200000000000      0.718200000000000
H      -5.870200000000000     -2.065300000000000     -1.455000000000000
H      -7.608400000000000     -2.216700000000000     -1.537100000000000
H      -6.759000000000000     -2.745500000000000     -0.073700000000000
