68

N      -1.449400000000000     -0.122000000000000     -0.536800000000000
N      -5.746000000000000      0.115400000000000      0.021300000000000
C       0.755500000000000      0.068500000000000      0.220800000000000
C       3.785700000000000     -0.147300000000000      0.141200000000000
C       1.532000000000000     -0.144800000000000     -1.103600000000000
C       1.658800000000000      0.768800000000000      1.250000000000000
C       2.888100000000000     -0.831800000000000     -0.910900000000000
C       2.995900000000000      0.054100000000000      1.451700000000000
C       0.182200000000000     -1.267800000000000      0.747900000000000
C      -0.522600000000000      0.888800000000000     -0.027200000000000
C      -1.298900000000000     -1.266300000000000      0.361700000000000
C       4.310300000000000      1.200700000000000     -0.390800000000000
C       5.002600000000000     -1.048500000000000      0.424300000000000
C      -2.820900000000000      0.359000000000000     -0.604100000000000
C       5.262700000000000      1.839600000000000      0.606400000000000
C       5.833600000000000     -1.243600000000000     -0.833500000000000
C      -3.737700000000000     -0.735500000000000     -1.153200000000000
C       5.762300000000000      3.180000000000000      0.091600000000000
C       7.021900000000000     -2.151400000000000     -0.559300000000000
C      -5.197400000000000     -0.290300000000000     -1.267000000000000
C      -5.694800000000000     -0.993600000000000      0.975800000000000
C      -7.122300000000000      0.590800000000000     -0.130700000000000
C      -6.202400000000000     -0.565700000000000      2.342400000000000
C      -7.199100000000000      1.743100000000000     -1.117900000000000
H       0.937800000000000     -0.738500000000000     -1.809900000000000
H       1.693100000000000      0.825500000000000     -1.590300000000000
H       1.836900000000000      1.806400000000000      0.943500000000000
H       1.145100000000000      0.830600000000000      2.218200000000000
H       3.371900000000000     -0.848600000000000     -1.894100000000000
H       2.720300000000000     -1.879400000000000     -0.632300000000000
H       2.782600000000000     -0.934800000000000      1.882000000000000
H       3.574100000000000      0.565100000000000      2.226200000000000
H       0.689000000000000     -2.138000000000000      0.318900000000000
H       0.269600000000000     -1.345100000000000      1.838100000000000
H      -0.364500000000000      1.695500000000000     -0.751200000000000
H      -0.891100000000000      1.331800000000000      0.908000000000000
H      -1.906400000000000     -1.164400000000000      1.270100000000000
H      -1.559400000000000     -2.209900000000000     -0.128300000000000
H       3.475600000000000      1.891600000000000     -0.559400000000000
H       4.779500000000000      1.106300000000000     -1.376000000000000
H       4.646000000000000     -2.032900000000000      0.759900000000000
H       5.615700000000000     -0.683300000000000      1.255000000000000
H      -3.161700000000000      0.692300000000000      0.383800000000000
H      -2.869200000000000      1.228100000000000     -1.272000000000000
H       4.787600000000000      2.031500000000000      1.571100000000000
H       6.152200000000000      1.230800000000000      0.785100000000000
H       5.257300000000000     -1.705500000000000     -1.639400000000000
H       6.246500000000000     -0.305300000000000     -1.211700000000000
H      -3.670100000000000     -1.671400000000000     -0.591300000000000
H      -3.395700000000000     -0.993700000000000     -2.165800000000000
H       6.448500000000000      3.633200000000000      0.814300000000000
H       4.931700000000000      3.875400000000000     -0.067200000000000
H       6.298500000000000      3.062600000000000     -0.855700000000000
H       7.614500000000000     -2.287400000000000     -1.469700000000000
H       6.692900000000000     -3.138900000000000     -0.219800000000000
H       7.674900000000000     -1.723600000000000      0.208400000000000
H      -5.787100000000000     -1.101100000000000     -1.714700000000000
H      -5.196400000000000      0.539100000000000     -1.982000000000000
H      -4.665000000000000     -1.319300000000000      1.147600000000000
H      -6.262100000000000     -1.864500000000000      0.624200000000000
H      -7.499100000000000      0.988300000000000      0.817200000000000
H      -7.800600000000000     -0.211200000000000     -0.448000000000000
H      -5.747100000000000      0.375900000000000      2.668300000000000
H      -7.291500000000000     -0.464100000000000      2.371900000000000
H      -5.941300000000000     -1.327800000000000      3.085600000000000
H      -6.432500000000000      2.500600000000000     -0.921800000000000
H      -7.118200000000000      1.411100000000000     -2.157700000000000
H      -8.173400000000001      2.237000000000000     -1.027100000000000
