68

O      -3.914200000000000     -2.516100000000000      1.907500000000000
N      -2.421500000000000      0.581800000000000     -0.462100000000000
C      -4.174800000000000     -0.203100000000000      1.188200000000000
C      -2.935700000000000     -1.893800000000000     -0.214200000000000
C      -3.725000000000000      0.857500000000000      0.150600000000000
C      -2.332100000000000     -0.750900000000000     -1.070100000000000
C      -3.283300000000000     -1.450100000000000      1.208100000000000
C      -5.656500000000000     -0.483600000000000      0.878700000000000
C      -1.911100000000000     -3.040600000000000     -0.239600000000000
C      -4.918500000000000      1.017500000000000     -0.805400000000000
C      -0.884700000000000     -1.195600000000000     -1.325800000000000
C      -6.119200000000000      0.723300000000000      0.078400000000000
C      -0.986900000000000     -2.709800000000000     -1.399600000000000
C      -2.011200000000000      1.641000000000000     -1.382600000000000
C      -1.614700000000000      2.919700000000000     -0.642700000000000
C      -0.457000000000000      2.712400000000000      0.338600000000000
C       0.776700000000000      2.148200000000000     -0.371500000000000
C       1.942600000000000      1.967600000000000      0.603300000000000
C       3.214900000000000      1.434200000000000     -0.061600000000000
C       4.358500000000000      1.183700000000000      0.925200000000000
C       5.576700000000000      0.585400000000000      0.216200000000000
C       6.762600000000000      0.333300000000000      1.151800000000000
C       8.004500000000000     -0.195600000000000      0.430900000000000
C       7.734600000000000     -1.558500000000000     -0.208400000000000
C       8.975400000000000     -2.107800000000000     -0.894200000000000
H      -4.129400000000000      0.243500000000000      2.191800000000000
H      -3.849800000000000     -2.253800000000000     -0.705800000000000
H      -3.645400000000000      1.790100000000000      0.724200000000000
H      -2.859600000000000     -0.754000000000000     -2.035100000000000
H      -2.356900000000000     -1.212100000000000      1.747300000000000
H      -6.245600000000000     -0.614600000000000      1.792100000000000
H      -5.776900000000000     -1.390200000000000      0.274900000000000
H      -2.391400000000000     -4.015700000000000     -0.367700000000000
H      -1.332900000000000     -3.076000000000000      0.691700000000000
H      -4.884400000000000      0.293900000000000     -1.627500000000000
H      -4.974700000000000      2.021000000000000     -1.238600000000000
H      -0.234500000000000     -0.919000000000000     -0.486900000000000
H      -0.463900000000000     -0.778200000000000     -2.245100000000000
H      -7.022400000000000      0.514900000000000     -0.501900000000000
H      -6.323400000000000      1.569900000000000      0.744300000000000
H      -0.013000000000000     -3.198600000000000     -1.306200000000000
H      -1.439000000000000     -3.018100000000000     -2.349500000000000
H      -2.805200000000000      1.873100000000000     -2.103000000000000
H      -1.169900000000000      1.332000000000000     -2.009900000000000
H      -4.125900000000000     -2.194600000000000      2.800600000000000
H      -1.314100000000000      3.666900000000000     -1.388800000000000
H      -2.467300000000000      3.359700000000000     -0.114700000000000
H      -0.208100000000000      3.677100000000000      0.797200000000000
H      -0.761400000000000      2.045000000000000      1.153100000000000
H       1.078800000000000      2.826600000000000     -1.178400000000000
H       0.572100000000000      1.177900000000000     -0.825300000000000
H       2.168300000000000      2.927400000000000      1.084200000000000
H       1.638800000000000      1.277600000000000      1.400400000000000
H       2.976300000000000      0.497000000000000     -0.580100000000000
H       3.544900000000000      2.145100000000000     -0.829100000000000
H       4.637500000000000      2.126800000000000      1.409900000000000
H       4.022800000000000      0.499900000000000      1.713900000000000
H       5.892200000000000      1.258400000000000     -0.590600000000000
H       5.263500000000000     -0.353200000000000     -0.253500000000000
H       7.027800000000000      1.272200000000000      1.653100000000000
H       6.465300000000000     -0.370400000000000      1.939000000000000
H       8.323700000000001      0.522000000000000     -0.334200000000000
H       8.824299999999999     -0.283400000000000      1.153800000000000
H       7.398500000000000     -2.270700000000000      0.554000000000000
H       6.944400000000000     -1.486900000000000     -0.962000000000000
H       9.316200000000000     -1.434200000000000     -1.687000000000000
H       9.793500000000000     -2.238300000000000     -0.178600000000000
H       8.760400000000001     -3.081700000000000     -1.344900000000000
