68

O      -5.089100000000000     -1.112600000000000      0.231500000000000
N      -4.257200000000000      0.984700000000000     -0.162500000000000
C       5.561600000000000     -0.503600000000000      0.349000000000000
C       5.231800000000000      0.936900000000000      0.643500000000000
C       6.502700000000000      0.330400000000000      1.178000000000000
C       4.768100000000000     -1.601700000000000      0.987000000000000
C       5.286900000000000      1.953500000000000     -0.443700000000000
C       3.532700000000000     -1.963000000000000      0.160400000000000
C       3.957900000000000      2.067800000000000     -1.213600000000000
C       2.752000000000000     -3.111500000000000      0.801400000000000
C       2.800000000000000      2.510000000000000     -0.316000000000000
C       1.455100000000000     -3.455500000000000      0.062600000000000
C       1.487400000000000      2.584300000000000     -1.101000000000000
C       0.448400000000000     -2.311000000000000     -0.089300000000000
C       0.293500000000000      2.994000000000000     -0.236300000000000
C      -0.815500000000000     -2.708500000000000     -0.854500000000000
C      -1.780300000000000     -1.526600000000000     -0.982400000000000
C      -0.996800000000000      3.053400000000000     -0.995100000000000
C      -3.062100000000000     -1.933000000000000     -1.715800000000000
C      -4.032400000000000     -0.768400000000000     -1.886100000000000
C      -4.778100000000000      0.968900000000000      1.219000000000000
C      -4.452200000000000     -0.229100000000000     -0.568900000000000
C      -5.590500000000000     -0.318800000000000      1.299400000000000
C      -5.637700000000000      2.206700000000000      1.452700000000000
C      -3.586300000000000      0.952800000000000      2.180800000000000
H       5.894200000000000     -0.766900000000000     -0.648800000000000
H       4.492000000000000      1.166600000000000      1.400400000000000
H       7.444200000000000      0.622200000000000      0.728300000000000
H       6.560700000000000      0.139500000000000      2.242900000000000
H       5.413000000000000     -2.483100000000000      1.085700000000000
H       4.461700000000000     -1.317100000000000      2.001300000000000
H       5.538700000000000      2.928100000000000     -0.008800000000000
H       6.083200000000000      1.713600000000000     -1.159200000000000
H       2.907500000000000     -1.067700000000000      0.077500000000000
H       3.828700000000000     -2.239900000000000     -0.858700000000000
H       3.719800000000000      1.098500000000000     -1.668800000000000
H       4.084300000000000      2.787700000000000     -2.030900000000000
H       3.384600000000000     -4.006400000000000      0.842900000000000
H       2.505200000000000     -2.849400000000000      1.837700000000000
H       2.657200000000000      1.804700000000000      0.508800000000000
H       3.024500000000000      3.488500000000000      0.124700000000000
H       0.969800000000000     -4.286800000000000      0.589100000000000
H       1.713400000000000     -3.832000000000000     -0.935400000000000
H       1.598300000000000      3.299400000000000     -1.925500000000000
H       1.281500000000000      1.606300000000000     -1.554100000000000
H       0.174300000000000     -1.942100000000000      0.906600000000000
H       0.913400000000000     -1.474800000000000     -0.622500000000000
H       0.187700000000000      2.283900000000000      0.592800000000000
H       0.492700000000000      3.974400000000000      0.212700000000000
H      -0.542500000000000     -3.071600000000000     -1.852500000000000
H      -1.311700000000000     -3.535700000000000     -0.332800000000000
H      -2.018400000000000     -1.154600000000000      0.020100000000000
H      -1.290300000000000     -0.708300000000000     -1.524000000000000
H      -0.942800000000000      3.780300000000000     -1.811900000000000
H      -1.818300000000000      3.349500000000000     -0.334900000000000
H      -1.248000000000000      2.078200000000000     -1.425100000000000
H      -3.548900000000000     -2.751700000000000     -1.171500000000000
H      -2.805500000000000     -2.322500000000000     -2.708500000000000
H      -3.567600000000000      0.032200000000000     -2.472300000000000
H      -4.926400000000000     -1.096900000000000     -2.427000000000000
H      -5.461100000000000     -0.850200000000000      2.247600000000000
H      -6.662100000000000     -0.162600000000000      1.132200000000000
H      -5.048300000000000      3.123300000000000      1.337000000000000
H      -6.070100000000000      2.204000000000000      2.458900000000000
H      -6.459800000000000      2.260400000000000      0.729900000000000
H      -2.953800000000000      1.836400000000000      2.037600000000000
H      -2.953100000000000      0.073000000000000      2.020400000000000
H      -3.921300000000000      0.939800000000000      3.223600000000000
