68

O       0.984800000000000     -1.295900000000000     -0.643500000000000
N       3.116700000000000      1.742500000000000     -0.833700000000000
C       3.445200000000000      0.553100000000000     -0.025700000000000
C       4.651500000000000      0.842500000000000      0.919700000000000
C       3.831100000000000     -0.655900000000000     -0.932500000000000
C       6.277800000000000     -0.018500000000000     -0.818000000000000
C       5.318800000000000     -1.600800000000000      0.886800000000000
C       5.919400000000000      1.165800000000000      0.097100000000000
C       4.966600000000000     -0.401900000000000      1.785700000000000
C       5.098700000000000     -0.332800000000000     -1.755800000000000
C       4.146700000000000     -1.899300000000000     -0.065300000000000
C       6.563600000000000     -1.252800000000000      0.053800000000000
C       2.167100000000000      0.286200000000000      0.758200000000000
C       0.954200000000000      0.039700000000000     -0.146900000000000
C       3.216800000000000      2.942400000000000     -0.025300000000000
C      -0.352500000000000      0.240100000000000      0.631300000000000
C      -1.588700000000000     -0.036400000000000     -0.231900000000000
C      -2.878000000000000      0.127200000000000      0.577000000000000
C      -4.112600000000000     -0.109300000000000     -0.295000000000000
C      -5.434700000000000      0.062900000000000      0.459100000000000
C      -6.706600000000000     -0.079200000000000     -0.384100000000000
C      -7.993300000000000      0.047600000000000      0.435100000000000
C      -9.264400000000000     -0.086900000000000     -0.409400000000000
C     -10.549700000000000     -0.035400000000000      0.417500000000000
C     -11.778499999999999     -0.245000000000000     -0.454200000000000
H       4.451500000000000      1.654100000000000      1.628100000000000
H       3.044000000000000     -0.894600000000000     -1.653200000000000
H       7.167300000000000      0.225300000000000     -1.409600000000000
H       5.526300000000000     -2.480300000000000      1.506400000000000
H       5.805500000000000      2.064000000000000     -0.516300000000000
H       6.755900000000000      1.370900000000000      0.777600000000000
H       5.813400000000000     -0.181500000000000      2.448900000000000
H       4.129700000000000     -0.651400000000000      2.445600000000000
H       5.354400000000000     -1.195600000000000     -2.385100000000000
H       4.934700000000000      0.496800000000000     -2.450500000000000
H       3.273600000000000     -2.229900000000000      0.504400000000000
H       4.411400000000000     -2.741300000000000     -0.718100000000000
H       6.842800000000000     -2.104200000000000     -0.579200000000000
H       7.416200000000000     -1.056700000000000      0.715500000000000
H       2.274400000000000     -0.583900000000000      1.413600000000000
H       1.946200000000000      1.108500000000000      1.448100000000000
H       3.738000000000000      1.839000000000000     -1.631800000000000
H       0.930300000000000      0.705800000000000     -1.014200000000000
H       4.235700000000000      3.277900000000000      0.181100000000000
H       2.774200000000000      3.757500000000000     -0.611500000000000
H       2.642100000000000      2.929300000000000      0.904100000000000
H      -0.372000000000000     -0.439200000000000      1.493400000000000
H      -0.399500000000000      1.264800000000000      1.019400000000000
H       0.913200000000000     -1.901100000000000      0.114200000000000
H      -1.597500000000000      0.651900000000000     -1.085600000000000
H      -1.549200000000000     -1.054400000000000     -0.636900000000000
H      -2.919800000000000      1.137100000000000      1.002500000000000
H      -2.881000000000000     -0.578400000000000      1.416400000000000
H      -4.095200000000000      0.589100000000000     -1.141000000000000
H      -4.073300000000000     -1.120200000000000     -0.719000000000000
H      -5.467700000000000     -0.670700000000000      1.274700000000000
H      -5.442800000000000      1.052300000000000      0.934000000000000
H      -6.694100000000000     -1.054000000000000     -0.886700000000000
H      -6.700700000000000      0.683700000000000     -1.172000000000000
H      -8.003600000000000      1.017600000000000      0.947300000000000
H      -7.997000000000000     -0.723100000000000      1.215900000000000
H      -9.282999999999999      0.710700000000000     -1.162400000000000
H      -9.227399999999999     -1.037400000000000     -0.956500000000000
H     -10.624400000000000      0.932400000000000      0.926400000000000
H     -10.523800000000000     -0.809500000000000      1.193100000000000
H     -11.747500000000000     -1.221200000000000     -0.948600000000000
H     -12.686700000000000     -0.201800000000000      0.155000000000000
H     -11.849100000000000      0.529100000000000     -1.224900000000000
