68

O       6.560400000000000      0.409100000000000      0.498200000000000
N       5.911300000000000      1.611000000000000      0.318400000000000
C      -0.318600000000000     -1.726000000000000      0.297000000000000
C      -1.631500000000000     -0.909700000000000      0.258000000000000
C       0.681400000000000     -0.647400000000000     -0.077900000000000
C      -1.241200000000000      0.437200000000000      0.879000000000000
C      -0.312000000000000     -2.871400000000000     -0.733000000000000
C       0.187700000000000      0.696900000000000      0.396600000000000
C      -2.830900000000000     -1.546200000000000      0.947400000000000
C       1.748400000000000     -0.866200000000000     -0.871000000000000
C       0.012500000000000     -2.268000000000000      1.704600000000000
C       1.110500000000000     -3.362600000000000     -1.000000000000000
C       2.035100000000000     -2.230500000000000     -1.460700000000000
C      -3.923000000000000     -0.519600000000000      1.317500000000000
C      -3.433100000000000     -2.631700000000000      0.047300000000000
C       2.709800000000000      0.211400000000000     -1.288700000000000
C      -4.446600000000000      0.270200000000000      0.113800000000000
C       3.845600000000000      0.365000000000000     -0.280900000000000
C      -5.484900000000000      1.337000000000000      0.486400000000000
C       4.826300000000000      1.457700000000000     -0.680000000000000
C      -6.102900000000000      2.121300000000000     -0.686700000000000
C      -7.166900000000000      3.118500000000000     -0.227400000000000
C      -4.999500000000000      2.857800000000000     -1.452200000000000
C       6.916600000000000      2.633200000000000     -0.150900000000000
C       5.345500000000000      2.053200000000000      1.645100000000000
H      -1.884900000000000     -0.707400000000000     -0.794500000000000
H      -1.246900000000000      0.391300000000000      1.975000000000000
H      -1.883600000000000      1.272400000000000      0.590400000000000
H      -0.757900000000000     -2.546300000000000     -1.681800000000000
H      -0.891700000000000     -3.727900000000000     -0.380300000000000
H       0.805100000000000      1.089800000000000      1.210200000000000
H       0.170500000000000      1.421300000000000     -0.424200000000000
H      -2.542200000000000     -2.015200000000000      1.893900000000000
H      -0.612400000000000     -3.131300000000000      1.957800000000000
H      -0.124900000000000     -1.516300000000000      2.488800000000000
H       1.055800000000000     -2.597300000000000      1.773200000000000
H       1.095200000000000     -4.153500000000000     -1.759400000000000
H       1.523300000000000     -3.822200000000000     -0.094200000000000
H       1.948000000000000     -2.146300000000000     -2.552000000000000
H       3.071800000000000     -2.518500000000000     -1.248900000000000
H      -4.763800000000000     -1.044200000000000      1.790300000000000
H      -3.550500000000000      0.173900000000000      2.080400000000000
H      -4.449400000000000     -2.886800000000000      0.369600000000000
H      -3.486500000000000     -2.327400000000000     -1.002900000000000
H      -2.865100000000000     -3.561200000000000      0.111000000000000
H       3.117400000000000     -0.016000000000000     -2.281800000000000
H       2.191800000000000      1.170500000000000     -1.403700000000000
H      -3.630100000000000      0.746500000000000     -0.428700000000000
H      -4.918600000000000     -0.422100000000000     -0.593700000000000
H       4.369200000000000     -0.593000000000000     -0.174600000000000
H       3.399900000000000      0.583100000000000      0.695100000000000
H      -5.024300000000000      2.043900000000000      1.189100000000000
H      -6.298300000000000      0.846900000000000      1.037500000000000
H       4.333200000000000      2.431700000000000     -0.776600000000000
H       5.311600000000000      1.206900000000000     -1.630700000000000
H      -6.580800000000000      1.409100000000000     -1.371000000000000
H      -6.741400000000000      3.869800000000000      0.446400000000000
H      -7.610100000000000      3.639600000000000     -1.082400000000000
H      -7.972900000000000      2.603700000000000      0.305900000000000
H      -4.407000000000000      3.495100000000000     -0.787000000000000
H      -5.431200000000000      3.496400000000000     -2.231000000000000
H      -4.323600000000000      2.160600000000000     -1.956100000000000
H       6.399300000000000      3.590000000000000     -0.257200000000000
H       7.711200000000000      2.687900000000000      0.598100000000000
H       7.317000000000000      2.286300000000000     -1.107300000000000
H       4.705900000000000      2.922700000000000      1.474800000000000
H       6.190900000000000      2.313500000000000      2.289200000000000
H       4.802300000000000      1.220900000000000      2.096600000000000
