69

N       4.094500000000000      0.758600000000000     -0.224700000000000
N       0.458700000000000     -0.026600000000000     -0.454900000000000
C       6.507500000000000      1.024600000000000     -0.768500000000000
C       5.671500000000000     -1.104900000000000      0.294100000000000
C       7.310700000000000      0.364200000000000      1.534200000000000
C       8.071300000000001     -0.940300000000000     -0.482800000000000
C       5.298800000000000      0.062200000000000     -0.653500000000000
C       6.936000000000000      1.543600000000000      0.619600000000000
C       7.689800000000000      0.247500000000000     -1.384300000000000
C       6.104400000000000     -0.580000000000000      1.678800000000000
C       6.857200000000000     -1.873500000000000     -0.326200000000000
C       8.480399999999999     -0.409800000000000      0.901700000000000
C       2.901700000000000     -0.012300000000000     -0.557900000000000
C       1.648900000000000      0.745100000000000     -0.127700000000000
C      -0.747800000000000      0.672200000000000     -0.024200000000000
C      -1.986900000000000     -0.146700000000000     -0.384700000000000
C      -3.298100000000000      0.518600000000000      0.045800000000000
C      -4.542100000000000     -0.286400000000000     -0.336600000000000
C      -5.822000000000000      0.428800000000000      0.105400000000000
C      -7.066900000000000     -0.360300000000000     -0.304800000000000
C      -8.378700000000000      0.299200000000000      0.131400000000000
C      -9.656900000000000     -0.487000000000000     -0.176400000000000
C     -10.928400000000000      0.190900000000000      0.337900000000000
C     -12.169900000000000     -0.639900000000000      0.010500000000000
C     -13.433900000000000      0.012200000000000      0.547800000000000
H       6.260400000000000      1.872500000000000     -1.418900000000000
H       4.839800000000000     -1.806200000000000      0.415700000000000
H       7.607100000000000      0.739700000000000      2.519900000000000
H       8.906499999999999     -1.491000000000000     -0.929600000000000
H       5.124200000000000     -0.341300000000000     -1.661500000000000
H       6.127600000000000      2.127900000000000      1.074900000000000
H       7.792400000000000      2.221500000000000      0.515500000000000
H       8.551600000000001      0.914800000000000     -1.508300000000000
H       7.422300000000000     -0.112800000000000     -2.385300000000000
H       6.366300000000000     -1.422100000000000      2.331500000000000
H       5.273100000000000     -0.054400000000000      2.163500000000000
H       6.570000000000000     -2.281900000000000     -1.303000000000000
H       7.122400000000000     -2.728100000000000      0.308500000000000
H       9.356400000000001      0.244000000000000      0.809100000000000
H       8.773199999999999     -1.243700000000000      1.551400000000000
H       4.039800000000000      1.666600000000000     -0.686000000000000
H       2.911200000000000     -0.984000000000000     -0.052600000000000
H       2.856600000000000     -0.196700000000000     -1.639000000000000
H       1.615100000000000      1.715400000000000     -0.639000000000000
H       1.691300000000000      0.936100000000000      0.952300000000000
H       0.504500000000000     -0.941100000000000     -0.006300000000000
H      -0.811500000000000      1.651300000000000     -0.513800000000000
H      -0.726000000000000      0.837600000000000      1.059800000000000
H      -2.011200000000000     -0.312500000000000     -1.469500000000000
H      -1.923000000000000     -1.136900000000000      0.084900000000000
H      -3.283500000000000      0.668400000000000      1.132500000000000
H      -3.358900000000000      1.514600000000000     -0.410300000000000
H      -4.493800000000000     -1.278900000000000      0.127100000000000
H      -4.559800000000000     -0.436500000000000     -1.422800000000000
H      -5.861100000000000      1.429200000000000     -0.342100000000000
H      -5.812500000000000      0.560800000000000      1.194000000000000
H      -7.077800000000000     -0.487600000000000     -1.394300000000000
H      -7.014600000000000     -1.366100000000000      0.130300000000000
H      -8.449900000000000      1.287500000000000     -0.340300000000000
H      -8.334400000000000      0.477000000000000      1.213600000000000
H      -9.732699999999999     -0.631200000000000     -1.261200000000000
H      -9.574700000000000     -1.485700000000000      0.270200000000000
H     -11.020799999999999      1.187000000000000     -0.111400000000000
H     -10.853899999999999      0.331100000000000      1.423100000000000
H     -12.260300000000001     -0.762100000000000     -1.075100000000000
H     -12.072400000000000     -1.642400000000000      0.443200000000000
H     -13.388800000000000      0.117600000000000      1.636400000000000
H     -14.308999999999999     -0.597400000000000      0.301600000000000
H     -13.578300000000000      1.005800000000000      0.111700000000000
