69

N       0.736400000000000      2.584400000000000      0.084700000000000
N       4.903400000000000     -0.636600000000000     -0.071200000000000
C      -1.154000000000000      1.292100000000000     -0.488000000000000
C      -3.775900000000000     -0.181200000000000     -0.027600000000000
C       0.383200000000000      1.361900000000000     -0.644200000000000
C      -1.611700000000000      0.839400000000000      0.923700000000000
C      -1.784800000000000      0.374300000000000     -1.552400000000000
C      -3.133100000000000      0.705600000000000      1.059900000000000
C      -3.306400000000000      0.275700000000000     -1.425200000000000
C      -1.507500000000000      2.775200000000000     -0.730600000000000
C      -0.304700000000000      3.565800000000000     -0.219000000000000
C      -5.308100000000000     -0.043800000000000      0.054900000000000
C      -3.421900000000000     -1.663200000000000      0.205600000000000
C       1.182200000000000      0.178300000000000     -0.115900000000000
C       2.679000000000000      0.358400000000000     -0.367300000000000
C      -5.820200000000000     -0.519600000000000      1.404600000000000
C      -4.083400000000000     -2.545600000000000     -0.839900000000000
C       3.476700000000000     -0.816100000000000      0.196600000000000
C      -7.329700000000000     -0.362900000000000      1.494600000000000
C      -3.716300000000000     -4.005000000000000     -0.623300000000000
C       5.604300000000000     -1.926800000000000     -0.010000000000000
C       5.485600000000000      0.329500000000000      0.870900000000000
C       7.089800000000000     -1.764000000000000     -0.336300000000000
C       6.967000000000000      0.566000000000000      0.573600000000000
C       7.750200000000000     -0.741900000000000      0.581700000000000
H       0.630600000000000      1.506500000000000     -1.706300000000000
H      -1.168100000000000     -0.132900000000000      1.165200000000000
H      -1.253200000000000      1.535100000000000      1.692400000000000
H      -1.542300000000000      0.742900000000000     -2.557500000000000
H      -1.348200000000000     -0.629000000000000     -1.493000000000000
H      -3.321700000000000      0.301100000000000      2.061000000000000
H      -3.584000000000000      1.705100000000000      1.044100000000000
H      -3.720000000000000      1.276100000000000     -1.617100000000000
H      -3.708000000000000     -0.336100000000000     -2.237100000000000
H      -2.430700000000000      3.095300000000000     -0.240000000000000
H      -1.626600000000000      2.971600000000000     -1.804000000000000
H       0.034900000000000      4.277200000000000     -0.979700000000000
H      -0.555800000000000      4.129300000000000      0.685000000000000
H       1.647300000000000      2.936900000000000     -0.202800000000000
H      -5.822600000000000     -0.553100000000000     -0.766700000000000
H      -5.578200000000000      1.015000000000000     -0.065500000000000
H      -3.664900000000000     -2.000500000000000      1.218500000000000
H      -2.337000000000000     -1.806600000000000      0.132800000000000
H       1.025500000000000      0.051800000000000      0.962100000000000
H       0.841800000000000     -0.744800000000000     -0.599100000000000
H       2.861100000000000      0.447000000000000     -1.446000000000000
H       3.014600000000000      1.291300000000000      0.093100000000000
H      -5.613700000000000     -1.578100000000000      1.579800000000000
H      -5.388800000000000      0.049100000000000      2.232700000000000
H      -5.174100000000000     -2.492300000000000     -0.801400000000000
H      -3.769200000000000     -2.296200000000000     -1.855700000000000
H       3.114100000000000     -1.722800000000000     -0.305800000000000
H       3.279200000000000     -0.952400000000000      1.267700000000000
H      -7.624500000000000      0.684900000000000      1.377100000000000
H      -7.690400000000000     -0.707900000000000      2.469000000000000
H      -7.833300000000000     -0.950800000000000      0.720300000000000
H      -2.634300000000000     -4.154400000000000     -0.697800000000000
H      -4.196900000000000     -4.634300000000000     -1.379400000000000
H      -4.044300000000000     -4.351100000000000      0.362300000000000
H       5.491700000000000     -2.385000000000000      0.981500000000000
H       5.173900000000000     -2.621600000000000     -0.741600000000000
H       4.987900000000000      1.301800000000000      0.802900000000000
H       5.374100000000000     -0.019100000000000      1.906400000000000
H       7.203900000000000     -1.445100000000000     -1.380300000000000
H       7.598100000000000     -2.730000000000000     -0.240000000000000
H       7.388900000000000      1.252800000000000      1.316200000000000
H       7.072800000000000      1.049600000000000     -0.405900000000000
H       7.789300000000000     -1.138900000000000      1.603500000000000
H       8.783700000000000     -0.563700000000000      0.265100000000000
