69

N       1.304100000000000      2.475700000000000      0.424200000000000
N       3.771400000000000     -0.145900000000000      0.222700000000000
C      -0.483200000000000      1.108000000000000     -0.287700000000000
C      -3.288200000000000     -0.069600000000000     -0.249500000000000
C       1.028700000000000      1.088000000000000      0.038200000000000
C      -0.885500000000000     -0.098700000000000     -1.156900000000000
C      -1.386200000000000      1.162600000000000      0.972800000000000
C      -0.561400000000000      2.432300000000000     -1.077200000000000
C      -2.377800000000000     -0.115800000000000     -1.494800000000000
C      -2.885400000000000      1.115300000000000      0.654000000000000
C       0.528700000000000      3.321800000000000     -0.482600000000000
C       1.483600000000000      0.131600000000000      1.132100000000000
C      -4.747800000000000      0.120900000000000     -0.704000000000000
C      -3.206600000000000     -1.395900000000000      0.531500000000000
C       2.993500000000000      0.190800000000000      1.414600000000000
C      -5.687300000000000      0.134500000000000      0.490800000000000
C      -3.639200000000000     -2.562200000000000     -0.341400000000000
C       3.365800000000000     -0.778600000000000      2.535600000000000
C       3.753300000000000     -1.597000000000000     -0.009900000000000
C       5.147400000000000      0.354700000000000      0.348400000000000
C      -7.125200000000000      0.345000000000000      0.044200000000000
C      -3.537500000000000     -3.873200000000000      0.421700000000000
C       4.521700000000000     -1.961900000000000     -1.281200000000000
C       5.961300000000000      0.053700000000000     -0.910900000000000
C       5.951700000000000     -1.436000000000000     -1.234800000000000
H       1.581800000000000      0.868000000000000     -0.886000000000000
H      -0.315800000000000     -0.092400000000000     -2.095200000000000
H      -0.614600000000000     -1.033900000000000     -0.654100000000000
H      -1.160300000000000      0.316400000000000      1.630900000000000
H      -1.183300000000000      2.066500000000000      1.560300000000000
H      -1.539900000000000      2.917800000000000     -1.029500000000000
H      -0.336300000000000      2.261500000000000     -2.137900000000000
H      -2.588200000000000      0.771900000000000     -2.108300000000000
H      -2.598100000000000     -0.954600000000000     -2.160100000000000
H      -3.407300000000000      1.072500000000000      1.616800000000000
H      -3.182800000000000      2.061700000000000      0.186800000000000
H       1.162400000000000      3.730500000000000     -1.277300000000000
H       0.097500000000000      4.160300000000000      0.073000000000000
H       1.166100000000000     -0.887700000000000      0.886100000000000
H       0.975200000000000      0.375500000000000      2.074300000000000
H       2.297100000000000      2.688700000000000      0.348600000000000
H      -5.059700000000000     -0.622200000000000     -1.445400000000000
H      -4.836000000000000      1.084300000000000     -1.226100000000000
H      -3.775200000000000     -1.370300000000000      1.466900000000000
H      -2.174700000000000     -1.579100000000000      0.854700000000000
H       3.239800000000000      1.205500000000000      1.751700000000000
H      -5.675500000000000     -0.809000000000000      1.041800000000000
H      -5.448800000000000      0.937600000000000      1.193200000000000
H      -4.677800000000000     -2.475300000000000     -0.669400000000000
H      -3.013200000000000     -2.673200000000000     -1.229500000000000
H       2.928800000000000     -1.776600000000000      2.416200000000000
H       2.946900000000000     -0.396200000000000      3.476100000000000
H       4.440400000000000     -0.872300000000000      2.715200000000000
H       4.228500000000000     -2.171500000000000      0.793600000000000
H       2.731000000000000     -1.969400000000000     -0.133500000000000
H       5.134600000000000      1.443100000000000      0.485500000000000
H       5.673300000000000     -0.073200000000000      1.209200000000000
H      -7.450200000000000     -0.456600000000000     -0.627000000000000
H      -7.795100000000000      0.353200000000000      0.910000000000000
H      -7.238900000000000      1.299600000000000     -0.479800000000000
H      -4.179800000000000     -3.863200000000000      1.308300000000000
H      -3.851200000000000     -4.708200000000000     -0.213100000000000
H      -2.508500000000000     -4.062500000000000      0.744500000000000
H       4.006000000000000     -1.542200000000000     -2.154400000000000
H       4.532600000000000     -3.050200000000000     -1.410400000000000
H       6.993500000000000      0.396500000000000     -0.776500000000000
H       5.546600000000000      0.614200000000000     -1.758500000000000
H       6.450000000000000     -1.615700000000000     -2.193700000000000
H       6.518100000000000     -1.980800000000000     -0.469500000000000
