69

N       2.111100000000000      0.732500000000000      0.571400000000000
N      -7.974900000000000     -2.111300000000000     -0.941200000000000
C      -2.165100000000000      1.022600000000000      0.188700000000000
C      -4.549700000000000      0.199600000000000      0.260400000000000
C      -3.618300000000000      1.389900000000000      0.483400000000000
C      -1.580800000000000      0.171500000000000      1.323900000000000
C      -1.322700000000000      2.285000000000000     -0.037800000000000
C       0.723900000000000      1.098600000000000      0.855100000000000
C      -5.866700000000000      0.392000000000000      1.023800000000000
C      -4.811000000000000     -0.010600000000000     -1.236900000000000
C      -0.110900000000000     -0.166900000000000      1.076600000000000
C       0.147200000000000      1.946300000000000     -0.284300000000000
C      -6.837000000000000     -0.762600000000000      0.775900000000000
C      -5.781200000000000     -1.165600000000000     -1.484000000000000
C      -7.094800000000000     -0.964100000000000     -0.721500000000000
C       3.012900000000000      1.838800000000000      0.877500000000000
C       4.453700000000000      1.453000000000000      0.535700000000000
C       4.662800000000000      1.093500000000000     -0.953600000000000
C       6.087500000000000      0.555100000000000     -1.214200000000000
C       4.364500000000000      2.332500000000000     -1.806200000000000
C       6.502500000000000     -0.661000000000000     -0.371700000000000
C       5.651400000000000     -1.870700000000000     -0.641200000000000
C       4.954800000000000     -2.615700000000000      0.237800000000000
C       4.893000000000000     -2.387600000000000      1.721300000000000
C       4.147800000000000     -3.794900000000000     -0.238900000000000
H      -2.107900000000000      0.436700000000000     -0.736300000000000
H      -4.094000000000000     -0.716500000000000      0.652800000000000
H      -3.937700000000000      2.226100000000000     -0.152000000000000
H      -3.697200000000000      1.748100000000000      1.518100000000000
H      -2.130000000000000     -0.768000000000000      1.440000000000000
H      -1.668000000000000      0.708000000000000      2.277600000000000
H      -1.400400000000000      2.947500000000000      0.833900000000000
H      -1.710200000000000      2.844200000000000     -0.897900000000000
H       0.676600000000000      1.676400000000000      1.789100000000000
H      -6.340300000000000      1.334300000000000      0.719500000000000
H      -5.669000000000000      0.468100000000000      2.099800000000000
H      -5.227300000000000      0.904700000000000     -1.677100000000000
H      -3.880600000000000     -0.223400000000000     -1.773300000000000
H      -0.036600000000000     -0.827800000000000      0.202700000000000
H       0.275000000000000     -0.731000000000000      1.935000000000000
H       0.698800000000000      2.885500000000000     -0.400500000000000
H       0.236800000000000      1.407400000000000     -1.237000000000000
H      -7.780200000000000     -0.558500000000000      1.297500000000000
H      -6.423700000000000     -1.680200000000000      1.215100000000000
H      -5.977100000000000     -1.245700000000000     -2.560500000000000
H      -5.305000000000000     -2.106300000000000     -1.177000000000000
H      -7.596800000000000     -0.070800000000000     -1.114700000000000
H       2.380600000000000     -0.074800000000000      1.133700000000000
H       2.968500000000000      2.067300000000000      1.950000000000000
H       2.740500000000000      2.756200000000000      0.349100000000000
H      -8.182100000000000     -2.199900000000000     -1.935100000000000
H      -8.866600000000000     -1.953700000000000     -0.473600000000000
H       5.120700000000000      2.278500000000000      0.815300000000000
H       4.726000000000000      0.609100000000000      1.176700000000000
H       3.955500000000000      0.309300000000000     -1.248600000000000
H       6.811400000000000      1.359200000000000     -1.027500000000000
H       6.181300000000000      0.303400000000000     -2.279000000000000
H       4.957000000000000      3.194600000000000     -1.481900000000000
H       4.608000000000000      2.138100000000000     -2.856700000000000
H       3.305800000000000      2.605500000000000     -1.773700000000000
H       6.551800000000000     -0.395100000000000      0.685500000000000
H       7.531600000000000     -0.922900000000000     -0.650300000000000
H       5.616600000000000     -2.161800000000000     -1.690800000000000
H       3.870400000000000     -2.133300000000000      2.019100000000000
H       5.189700000000000     -3.297700000000000      2.253700000000000
H       5.548000000000000     -1.587800000000000      2.070600000000000
H       4.206700000000000     -3.931300000000000     -1.323900000000000
H       3.092600000000000     -3.660400000000000      0.021100000000000
H       4.507700000000000     -4.715900000000000      0.231200000000000
