69

N       1.097300000000000     -1.532000000000000      0.104600000000000
N       5.139100000000000     -0.022900000000000     -0.409600000000000
C      -1.180300000000000     -1.089800000000000      0.402700000000000
C      -3.805800000000000      0.422900000000000      0.171800000000000
C      -1.387900000000000      0.048100000000000     -0.629100000000000
C      -2.533800000000000     -1.729700000000000      0.755400000000000
C      -2.454900000000000      1.064400000000000     -0.209000000000000
C      -3.578300000000000     -0.705000000000000      1.200500000000000
C      -0.425500000000000     -0.574800000000000      1.650600000000000
C      -0.206200000000000     -2.147100000000000     -0.146100000000000
C       1.025700000000000     -1.029600000000000      1.476400000000000
C      -4.711600000000000      1.498400000000000      0.801400000000000
C      -4.518900000000000     -0.119700000000000     -1.082100000000000
C       2.201300000000000     -2.458500000000000     -0.094300000000000
C      -4.994800000000000      2.613800000000000     -0.191700000000000
C      -5.887400000000000     -0.676300000000000     -0.725300000000000
C       3.556100000000000     -1.802700000000000      0.181800000000000
C      -5.869900000000000      3.686300000000000      0.436900000000000
C      -6.581200000000000     -1.232100000000000     -1.958400000000000
C       3.825800000000000     -0.590900000000000     -0.712200000000000
C       5.667500000000000      0.699800000000000     -1.575100000000000
C       5.061400000000000      0.853000000000000      0.768100000000000
C       7.062500000000000      1.258900000000000     -1.291700000000000
C       6.436900000000000      1.416900000000000      1.128200000000000
C       7.062700000000000      2.148600000000000     -0.053800000000000
H      -1.673900000000000     -0.385900000000000     -1.595700000000000
H      -0.447200000000000      0.584300000000000     -0.808800000000000
H      -2.401700000000000     -2.466600000000000      1.558300000000000
H      -2.913300000000000     -2.294600000000000     -0.104500000000000
H      -2.569200000000000      1.761300000000000     -1.046900000000000
H      -2.072600000000000      1.654900000000000      0.632700000000000
H      -3.221700000000000     -0.252000000000000      2.136500000000000
H      -4.500700000000000     -1.218200000000000      1.484600000000000
H      -0.475400000000000      0.514100000000000      1.748900000000000
H      -0.828900000000000     -1.004000000000000      2.575300000000000
H      -0.363500000000000     -2.343000000000000     -1.212300000000000
H      -0.310200000000000     -3.095600000000000      0.398100000000000
H       1.246000000000000     -1.811100000000000      2.215100000000000
H       1.712200000000000     -0.193100000000000      1.642400000000000
H      -4.197700000000000      1.931600000000000      1.671400000000000
H      -5.638700000000000      1.084000000000000      1.211200000000000
H      -4.595800000000000      0.631000000000000     -1.875900000000000
H      -3.928200000000000     -0.925200000000000     -1.534600000000000
H       2.098500000000000     -3.344300000000000      0.546100000000000
H       2.192000000000000     -2.815400000000000     -1.131800000000000
H      -5.531400000000000      2.260600000000000     -1.075700000000000
H      -4.078800000000000      3.105800000000000     -0.529800000000000
H      -6.555700000000000      0.085500000000000     -0.316600000000000
H      -5.828500000000000     -1.493900000000000     -0.003300000000000
H       4.336300000000000     -2.555200000000000      0.004400000000000
H       3.631100000000000     -1.544400000000000      1.243500000000000
H      -6.831900000000000      3.272100000000000      0.755900000000000
H      -6.068600000000000      4.485800000000000     -0.284000000000000
H      -5.381000000000000      4.132000000000000      1.309300000000000
H      -6.723300000000000     -0.453200000000000     -2.714700000000000
H      -7.566300000000000     -1.629700000000000     -1.693900000000000
H      -5.998600000000000     -2.043800000000000     -2.406000000000000
H       3.037700000000000      0.167600000000000     -0.631100000000000
H       3.800800000000000     -0.951100000000000     -1.749500000000000
H       5.746300000000000      0.020400000000000     -2.432600000000000
H       4.993600000000000      1.516600000000000     -1.865600000000000
H       4.364200000000000      1.683300000000000      0.592300000000000
H       4.693900000000000      0.304000000000000      1.641400000000000
H       7.415200000000000      1.830600000000000     -2.157500000000000
H       7.767800000000000      0.430700000000000     -1.146400000000000
H       7.097800000000000      0.599800000000000      1.444300000000000
H       6.345400000000000      2.101400000000000      1.979100000000000
H       6.494400000000000      3.063700000000000     -0.260600000000000
H       8.086300000000000      2.452900000000000      0.191000000000000
