69

N      -5.097400000000000      2.102000000000000      0.684100000000000
N       5.288700000000000      1.660700000000000      0.593500000000000
C      -0.005600000000000     -0.228900000000000     -0.789100000000000
C      -1.236000000000000      0.317800000000000     -0.066000000000000
C       1.232200000000000      0.591800000000000     -0.435600000000000
C       0.208500000000000     -1.701000000000000     -0.444500000000000
C      -1.433800000000000      1.801800000000000     -0.384000000000000
C      -2.484500000000000     -0.481600000000000     -0.446100000000000
C       1.771400000000000      0.189900000000000      0.939200000000000
C       2.314400000000000      0.423500000000000     -1.504700000000000
C      -2.675100000000000      2.379100000000000      0.316700000000000
C      -3.745200000000000      0.054200000000000      0.253300000000000
C       3.030000000000000      0.988300000000000      1.318600000000000
C       3.582900000000000      1.225900000000000     -1.169800000000000
C      -3.944200000000000      1.563500000000000     -0.044300000000000
C       4.126900000000000      0.842500000000000      0.231400000000000
C      -0.034300000000000     -1.964700000000000      1.043400000000000
C      -0.684300000000000     -2.601900000000000     -1.315900000000000
C       0.288800000000000     -3.411700000000000      1.426100000000000
C      -0.983400000000000     -3.964800000000000     -0.685100000000000
C       0.111200000000000     -4.404600000000000      0.276300000000000
C      -2.816900000000000      3.862600000000000     -0.046400000000000
C      -4.951000000000000     -0.794000000000000     -0.169100000000000
C       3.519200000000000      0.535000000000000      2.699900000000000
C       4.617600000000000      1.014500000000000     -2.281900000000000
H      -0.173200000000000     -0.133600000000000     -1.871700000000000
H      -1.114000000000000      0.271300000000000      1.022500000000000
H       1.045000000000000      1.664500000000000     -0.427000000000000
H       1.238700000000000     -1.997100000000000     -0.678400000000000
H      -1.512000000000000      1.950600000000000     -1.468700000000000
H      -0.603000000000000      2.413800000000000     -0.028500000000000
H      -2.446700000000000     -1.521900000000000     -0.136400000000000
H      -2.646600000000000     -0.429400000000000     -1.530600000000000
H       2.108800000000000     -0.849500000000000      0.963800000000000
H       1.032600000000000      0.422400000000000      1.712000000000000
H       1.922400000000000      0.760700000000000     -2.473200000000000
H       2.585900000000000     -0.631200000000000     -1.630200000000000
H      -2.510900000000000      2.316800000000000      1.402100000000000
H      -3.612200000000000     -0.075100000000000      1.337000000000000
H       2.747500000000000      2.048000000000000      1.396200000000000
H       3.317000000000000      2.292500000000000     -1.164400000000000
H      -4.142800000000000      1.681800000000000     -1.118100000000000
H       4.454000000000000     -0.205700000000000      0.201100000000000
H      -1.098900000000000     -1.872200000000000      1.279800000000000
H       0.423500000000000     -1.361300000000000      1.814000000000000
H      -0.074400000000000     -2.813800000000000     -2.209500000000000
H      -1.575800000000000     -2.183900000000000     -1.775600000000000
H      -0.347300000000000     -3.709000000000000      2.269400000000000
H       1.323300000000000     -3.477300000000000      1.785300000000000
H      -1.113600000000000     -4.714800000000000     -1.473800000000000
H      -1.936000000000000     -3.912100000000000     -0.143700000000000
H      -0.114100000000000     -5.398100000000000      0.680300000000000
H       1.056500000000000     -4.499400000000000     -0.272900000000000
H      -1.876900000000000      4.397300000000000      0.129500000000000
H      -3.579200000000000      4.358300000000000      0.562300000000000
H      -3.082600000000000      3.989200000000000     -1.101300000000000
H      -5.841200000000000     -0.548900000000000      0.417900000000000
H      -4.752400000000000     -1.860200000000000     -0.013700000000000
H      -5.187500000000000     -0.646400000000000     -1.228200000000000
H       2.698800000000000      0.550100000000000      3.425900000000000
H       4.298200000000000      1.196400000000000      3.090700000000000
H       3.918400000000000     -0.484400000000000      2.666000000000000
H       5.472000000000000      1.688800000000000     -2.170700000000000
H       4.177500000000000      1.216400000000000     -3.264600000000000
H       4.991200000000000     -0.015000000000000     -2.285100000000000
H      -5.940700000000000      1.592100000000000      0.426800000000000
H      -5.270000000000000      3.065400000000000      0.401900000000000
H       6.026000000000000      1.544100000000000     -0.099400000000000
H       5.689000000000000      1.330200000000000      1.469900000000000
