69

N      -0.345400000000000     -0.977600000000000     -0.833800000000000
N      -1.458600000000000      1.650500000000000     -0.573400000000000
C      -3.184600000000000     -0.705000000000000      0.049000000000000
C      -2.728600000000000     -0.369600000000000     -1.387600000000000
C      -1.989500000000000     -0.288100000000000      0.952400000000000
C      -3.602100000000000     -2.182900000000000      0.220000000000000
C      -4.517200000000000     -0.023900000000000      0.433500000000000
C      -1.470500000000000     -1.200100000000000     -1.750900000000000
C      -0.720900000000000     -1.104200000000000      0.580800000000000
C      -2.467300000000000      1.153500000000000     -1.518000000000000
C      -1.711900000000000      1.234000000000000      0.812400000000000
C      -4.447200000000000     -2.214200000000000      1.490000000000000
C      -5.038900000000000     -0.815300000000000      1.629200000000000
C       0.786100000000000     -1.839900000000000     -1.161800000000000
C      -1.305400000000000      3.098900000000000     -0.672900000000000
C       1.991600000000000     -1.479400000000000     -0.294200000000000
C      -0.116300000000000      3.561600000000000      0.168500000000000
C       3.221600000000000     -2.348100000000000     -0.575900000000000
C       1.211800000000000      2.930800000000000     -0.261900000000000
C       4.422700000000000     -2.007300000000000      0.309000000000000
C       2.400600000000000      3.371600000000000      0.595000000000000
C       5.641600000000000     -2.852700000000000     -0.063100000000000
C       3.708400000000000      2.770500000000000      0.077700000000000
C       6.829900000000000     -2.541800000000000      0.833100000000000
C       4.889800000000000      3.178800000000000      0.943200000000000
H      -3.521600000000000     -0.635000000000000     -2.099300000000000
H      -2.219700000000000     -0.489800000000000      2.006100000000000
H      -4.225400000000000     -2.495100000000000     -0.628800000000000
H      -2.776400000000000     -2.894900000000000      0.281000000000000
H      -4.444800000000000      1.040000000000000      0.669000000000000
H      -5.234700000000000     -0.115300000000000     -0.393000000000000
H      -1.162000000000000     -0.929200000000000     -2.768800000000000
H      -1.735500000000000     -2.264700000000000     -1.780000000000000
H      -0.860200000000000     -2.155600000000000      0.857100000000000
H       0.070100000000000     -0.712500000000000      1.228400000000000
H      -3.412500000000000      1.695800000000000     -1.388100000000000
H      -2.130400000000000      1.357700000000000     -2.542300000000000
H      -0.840400000000000      1.437900000000000      1.443600000000000
H      -2.543200000000000      1.803100000000000      1.244200000000000
H      -3.824300000000000     -2.445800000000000      2.361600000000000
H      -5.225600000000000     -2.981700000000000      1.430200000000000
H      -6.133200000000000     -0.835500000000000      1.645200000000000
H      -4.705200000000000     -0.359100000000000      2.568200000000000
H       0.529300000000000     -2.898500000000000     -1.027600000000000
H       1.064000000000000     -1.703000000000000     -2.214200000000000
H      -1.122800000000000      3.385300000000000     -1.716400000000000
H      -2.214200000000000      3.621000000000000     -0.348300000000000
H       1.777300000000000     -1.617600000000000      0.769800000000000
H       2.254100000000000     -0.424800000000000     -0.441500000000000
H      -0.285300000000000      3.418000000000000      1.240900000000000
H      -0.028800000000000      4.649200000000000      0.042600000000000
H       2.958000000000000     -3.403800000000000     -0.435100000000000
H       3.503600000000000     -2.230200000000000     -1.629700000000000
H       1.144000000000000      1.838300000000000     -0.213800000000000
H       1.404700000000000      3.189200000000000     -1.310700000000000
H       4.161200000000000     -2.174800000000000      1.360800000000000
H       4.667500000000000     -0.943700000000000      0.202100000000000
H       2.235000000000000      3.063300000000000      1.634300000000000
H       2.472000000000000      4.465900000000000      0.588900000000000
H       5.396500000000000     -3.917700000000000      0.023100000000000
H       5.919300000000000     -2.666900000000000     -1.107100000000000
H       3.886600000000000      3.096700000000000     -0.953600000000000
H       3.636600000000000      1.677000000000000      0.064400000000000
H       7.690100000000000     -3.156000000000000      0.548800000000000
H       7.120400000000000     -1.489800000000000      0.748100000000000
H       6.595400000000000     -2.750100000000000      1.881900000000000
H       5.813700000000000      2.738200000000000      0.555600000000000
H       5.010500000000000      4.266800000000000      0.954200000000000
H       4.757200000000000      2.836800000000000      1.974500000000000
