69

N      -2.629400000000000     -0.270900000000000      0.088400000000000
N       4.332100000000000      0.175800000000000     -0.201500000000000
C      -1.859900000000000      1.002900000000000      0.116800000000000
C      -1.927100000000000     -1.523400000000000      0.465800000000000
C       0.304600000000000     -0.287600000000000      0.587500000000000
C       1.634900000000000     -0.293300000000000      0.758400000000000
C      -0.534600000000000      0.908600000000000      0.922200000000000
C      -0.430900000000000     -1.477800000000000      0.050300000000000
C       3.517600000000000      1.325100000000000      0.302000000000000
C       3.621600000000000     -1.084100000000000     -0.583300000000000
C       2.413900000000000      0.864600000000000      1.294200000000000
C       2.513800000000000     -1.459700000000000      0.440000000000000
C      -4.028500000000000     -0.187900000000000      0.493300000000000
C      -2.625100000000000      2.219200000000000      0.705200000000000
C      -1.556300000000000      1.352600000000000     -1.359900000000000
C      -2.540900000000000     -2.712400000000000     -0.318700000000000
C      -2.053300000000000     -1.844900000000000      1.973200000000000
C       4.430500000000000      2.278200000000000      1.121800000000000
C       2.867100000000000      2.177500000000000     -0.813500000000000
C       3.006900000000000     -1.059600000000000     -2.003000000000000
C       4.626800000000000     -2.268200000000000     -0.548700000000000
C       5.389300000000000      0.566800000000000     -1.141300000000000
C      -4.888500000000000      0.308000000000000     -0.667900000000000
C      -6.363300000000000      0.382000000000000     -0.271100000000000
C      -7.221400000000000      0.908600000000000     -1.410300000000000
H       0.013700000000000      1.838200000000000      0.734300000000000
H      -0.757400000000000      0.884800000000000      1.996500000000000
H      -0.349000000000000     -1.470500000000000     -1.044600000000000
H       0.021800000000000     -2.413500000000000      0.396000000000000
H       2.889700000000000      0.522100000000000      2.226000000000000
H       1.805100000000000      1.717700000000000      1.604400000000000
H       1.978100000000000     -2.336100000000000      0.067400000000000
H       2.977300000000000     -1.786800000000000      1.382400000000000
H      -4.178500000000000      0.400500000000000      1.403900000000000
H      -4.430100000000000     -1.172500000000000      0.755300000000000
H      -3.524100000000000      2.498700000000000      0.155600000000000
H      -2.888700000000000      2.061700000000000      1.757100000000000
H      -1.984900000000000      3.111400000000000      0.684900000000000
H      -2.472800000000000      1.515400000000000     -1.937100000000000
H      -0.963500000000000      2.272600000000000     -1.431100000000000
H      -0.989200000000000      0.567200000000000     -1.869400000000000
H      -3.572600000000000     -2.930900000000000     -0.026300000000000
H      -2.536200000000000     -2.517000000000000     -1.397800000000000
H      -1.966400000000000     -3.631300000000000     -0.150100000000000
H      -3.083700000000000     -2.074400000000000      2.264500000000000
H      -1.451200000000000     -2.723300000000000      2.234700000000000
H      -1.714800000000000     -1.020900000000000      2.607100000000000
H       5.129900000000000      2.836300000000000      0.491100000000000
H       3.835600000000000      3.026100000000000      1.660500000000000
H       5.011900000000000      1.725400000000000      1.869200000000000
H       3.609000000000000      2.589200000000000     -1.505300000000000
H       2.130800000000000      1.622200000000000     -1.396300000000000
H       2.336800000000000      3.035100000000000     -0.380800000000000
H       3.758100000000000     -0.866100000000000     -2.775500000000000
H       2.557700000000000     -2.031200000000000     -2.244200000000000
H       2.213300000000000     -0.318500000000000     -2.108400000000000
H       5.348800000000000     -2.231000000000000     -1.370800000000000
H       5.185200000000000     -2.287300000000000      0.394800000000000
H       4.105900000000000     -3.229600000000000     -0.637800000000000
H       6.088400000000000     -0.251400000000000     -1.334400000000000
H       6.019000000000000      1.365200000000000     -0.739500000000000
H       4.994100000000000      0.904100000000000     -2.104200000000000
H      -4.577900000000000      1.284500000000000     -1.042800000000000
H      -4.786000000000000     -0.386800000000000     -1.512600000000000
H      -6.722600000000000     -0.611500000000000      0.021700000000000
H      -6.481500000000000      1.040100000000000      0.597700000000000
H      -7.148000000000000      0.259700000000000     -2.288900000000000
H      -8.271800000000001      0.950200000000000     -1.105500000000000
H      -6.912300000000000      1.917700000000000     -1.701100000000000
