69

N       1.339100000000000     -2.149300000000000     -0.110600000000000
N       2.439400000000000     -1.824300000000000      2.543000000000000
C       0.478400000000000     -2.166200000000000      1.078400000000000
C       2.682600000000000     -2.638200000000000      0.222600000000000
C       0.750900000000000     -2.941800000000000     -1.188600000000000
C       1.095100000000000     -1.337200000000000      2.210300000000000
C       3.299700000000000     -1.808200000000000      1.353600000000000
C      -0.598600000000000     -2.380600000000000     -1.643600000000000
C      -0.511000000000000     -0.930200000000000     -2.131200000000000
C       0.378800000000000     -0.758600000000000     -3.367500000000000
C       0.439600000000000      0.684200000000000     -3.875800000000000
C       3.027500000000000     -1.030100000000000      3.619800000000000
C       0.933100000000000      1.677100000000000     -2.817700000000000
C       2.371100000000000      1.408900000000000     -2.360200000000000
C       2.852500000000000      2.399800000000000     -1.294700000000000
C       2.001100000000000      2.387900000000000     -0.058000000000000
C       1.335800000000000      3.458900000000000      0.399900000000000
C      -3.256100000000000      0.387000000000000      0.911400000000000
C      -4.715200000000000      0.082900000000000      0.557100000000000
C      -3.059200000000000      1.793200000000000      1.486700000000000
C       0.481000000000000      3.446100000000000      1.633400000000000
C      -4.868400000000000     -1.338200000000000      0.014300000000000
C      -1.625000000000000      2.096200000000000      1.810800000000000
C      -0.951600000000000      3.141200000000000      1.307100000000000
C      -6.320700000000000     -1.660500000000000     -0.300400000000000
H       0.304000000000000     -3.193800000000000      1.425000000000000
H      -0.498100000000000     -1.716500000000000      0.874400000000000
H       3.334500000000000     -2.558800000000000     -0.655900000000000
H       2.653700000000000     -3.696900000000000      0.514300000000000
H       0.607300000000000     -3.983100000000000     -0.870100000000000
H       1.434400000000000     -2.981500000000000     -2.044400000000000
H       0.444900000000000     -1.418600000000000      3.090000000000000
H       1.120100000000000     -0.278200000000000      1.923100000000000
H       3.468900000000000     -0.779900000000000      1.006100000000000
H       4.279700000000000     -2.235000000000000      1.599100000000000
H      -1.361200000000000     -2.465700000000000     -0.862400000000000
H      -0.964900000000000     -3.004800000000000     -2.469300000000000
H      -1.524500000000000     -0.590300000000000     -2.378600000000000
H      -0.166700000000000     -0.298200000000000     -1.307400000000000
H       1.395200000000000     -1.110600000000000     -3.169600000000000
H      -0.009600000000000     -1.390900000000000     -4.175700000000000
H       1.092400000000000      0.728400000000000     -4.755700000000000
H      -0.559400000000000      0.991400000000000     -4.208200000000000
H       2.405000000000000     -1.082300000000000      4.519800000000000
H       3.143500000000000      0.023800000000000      3.341700000000000
H       4.011900000000000     -1.424600000000000      3.895100000000000
H       0.894000000000000      2.682300000000000     -3.257300000000000
H       0.239600000000000      1.698900000000000     -1.971900000000000
H       2.455300000000000      0.397300000000000     -1.947600000000000
H       3.046000000000000      1.457900000000000     -3.223200000000000
H       2.891200000000000      3.405800000000000     -1.730500000000000
H       3.879700000000000      2.143100000000000     -1.009500000000000
H       1.944800000000000      1.450200000000000      0.487500000000000
H       1.386900000000000      4.395500000000000     -0.150300000000000
H      -2.636700000000000      0.273000000000000      0.012500000000000
H      -2.896700000000000     -0.354900000000000      1.636300000000000
H      -5.339700000000000      0.205700000000000      1.450300000000000
H      -5.070300000000000      0.804300000000000     -0.188500000000000
H      -3.458700000000000      2.531200000000000      0.780200000000000
H      -3.645900000000000      1.890500000000000      2.408300000000000
H       0.539300000000000      4.429300000000000      2.114900000000000
H       0.879900000000000      2.726500000000000      2.359500000000000
H      -4.492300000000000     -2.060600000000000      0.748200000000000
H      -4.266400000000000     -1.456300000000000     -0.894300000000000
H      -1.125000000000000      1.419900000000000      2.499800000000000
H      -1.458800000000000      3.824400000000000      0.629400000000000
H      -6.719800000000000     -0.974900000000000     -1.054700000000000
H      -6.407000000000000     -2.680200000000000     -0.688500000000000
H      -6.942900000000000     -1.584700000000000      0.597100000000000
