69

N       2.435800000000000      0.966800000000000     -1.146900000000000
N       4.349600000000000     -0.855400000000000      0.026000000000000
C       2.940000000000000     -0.192800000000000     -1.892700000000000
C       3.441200000000000      1.433000000000000     -0.184300000000000
C       2.051300000000000      2.042800000000000     -2.058100000000000
C       3.345400000000000     -1.321200000000000     -0.938300000000000
C       3.845600000000000      0.304800000000000      0.771000000000000
C       1.135300000000000      3.066900000000000     -1.383400000000000
C      -0.189300000000000      2.462600000000000     -0.904700000000000
C      -1.140300000000000      3.496000000000000     -0.290500000000000
C      -2.477500000000000      2.899500000000000      0.156800000000000
C       4.732100000000000     -1.931600000000000      0.937900000000000
C      -2.321900000000000      1.762500000000000      1.173000000000000
C      -1.683900000000000      2.212800000000000      2.491700000000000
C      -1.522600000000000      1.067500000000000      3.497500000000000
C      -0.674900000000000     -0.055600000000000      2.973700000000000
C      -1.111900000000000     -1.315700000000000      2.831000000000000
C      -2.015600000000000     -2.322000000000000     -2.254600000000000
C      -3.148400000000000     -1.606100000000000     -1.512200000000000
C      -1.259300000000000     -3.321700000000000     -1.373900000000000
C      -0.266400000000000     -2.437800000000000      2.303200000000000
C      -3.892200000000000     -0.641000000000000     -2.435900000000000
C      -0.639900000000000     -2.682900000000000     -0.164600000000000
C      -0.887800000000000     -3.073800000000000      1.094400000000000
C      -5.044200000000000      0.042300000000000     -1.716100000000000
H       2.157100000000000     -0.575900000000000     -2.558800000000000
H       3.796500000000000      0.088100000000000     -2.520500000000000
H       4.333300000000000      1.813800000000000     -0.700100000000000
H       3.045900000000000      2.249500000000000      0.429000000000000
H       1.498700000000000      1.628700000000000     -2.912100000000000
H       2.931700000000000      2.547200000000000     -2.476700000000000
H       2.458100000000000     -1.705700000000000     -0.419700000000000
H       3.757400000000000     -2.144900000000000     -1.533800000000000
H       4.627700000000000      0.683100000000000      1.440500000000000
H       2.986500000000000      0.025600000000000      1.396600000000000
H       1.640300000000000      3.568100000000000     -0.550700000000000
H       0.913500000000000      3.853900000000000     -2.115800000000000
H       0.038400000000000      1.689900000000000     -0.163700000000000
H      -0.690000000000000      1.966600000000000     -1.745300000000000
H      -1.346600000000000      4.274400000000000     -1.035900000000000
H      -0.648500000000000      4.003100000000000      0.546800000000000
H      -3.011300000000000      2.517800000000000     -0.721600000000000
H      -3.100400000000000      3.693700000000000      0.584800000000000
H       3.884100000000000     -2.293900000000000      1.530600000000000
H       5.149400000000000     -2.777500000000000      0.380400000000000
H       5.514000000000000     -1.592400000000000      1.626300000000000
H      -3.322800000000000      1.368100000000000      1.391500000000000
H      -1.769800000000000      0.932300000000000      0.723000000000000
H      -2.296400000000000      3.001300000000000      2.945100000000000
H      -0.694700000000000      2.645900000000000      2.305300000000000
H      -1.054300000000000      1.458500000000000      4.408600000000000
H      -2.515400000000000      0.702400000000000      3.788300000000000
H       0.347700000000000      0.190600000000000      2.698100000000000
H      -2.132000000000000     -1.560200000000000      3.118900000000000
H      -2.424700000000000     -2.857600000000000     -3.120000000000000
H      -1.311400000000000     -1.577400000000000     -2.647700000000000
H      -2.751900000000000     -1.044100000000000     -0.659100000000000
H      -3.849800000000000     -2.349200000000000     -1.113600000000000
H      -1.939400000000000     -4.131200000000000     -1.081800000000000
H      -0.460600000000000     -3.781400000000000     -1.968100000000000
H       0.746400000000000     -2.088600000000000      2.064700000000000
H      -0.151000000000000     -3.199200000000000      3.083400000000000
H      -4.282900000000000     -1.181500000000000     -3.305800000000000
H      -3.199200000000000      0.121400000000000     -2.810600000000000
H       0.052300000000000     -1.864100000000000     -0.342000000000000
H      -1.587500000000000     -3.886600000000000      1.274200000000000
H      -5.780700000000000     -0.691200000000000     -1.372600000000000
H      -4.688700000000000      0.602800000000000     -0.846300000000000
H      -5.549900000000000      0.742000000000000     -2.388600000000000
