70

O       8.801700000000000      2.230600000000000     -0.732500000000000
O     -13.936100000000000     -0.061100000000000     -0.799000000000000
C       6.842200000000000     -1.417700000000000     -0.162500000000000
C       6.260800000000000     -0.073900000000000      0.314900000000000
C       7.865200000000000     -1.188600000000000     -1.297400000000000
C       4.960000000000000     -0.162600000000000      1.085300000000000
C       8.892899999999999     -0.133700000000000     -0.945700000000000
C       6.867500000000000      1.115200000000000      0.089800000000000
C       5.749300000000000     -2.346800000000000     -0.738500000000000
C       7.520600000000000     -2.136500000000000      1.021900000000000
C       3.714400000000000     -0.036300000000000      0.203500000000000
C       8.219700000000000      1.158200000000000     -0.564000000000000
C       2.374100000000000     -0.059200000000000      0.948100000000000
C       1.160400000000000      0.046900000000000      0.021000000000000
C      -0.146700000000000     -0.013900000000000      0.815200000000000
C       6.306400000000000      2.464500000000000      0.450900000000000
C      -1.397500000000000      0.174300000000000     -0.049100000000000
C      -2.739900000000000      0.062400000000000      0.680900000000000
C      -3.951900000000000      0.175500000000000     -0.247200000000000
C      -5.260700000000000      0.030300000000000      0.533900000000000
C      -6.509600000000000      0.148000000000000     -0.344700000000000
C      -7.818400000000000      0.027100000000000      0.439400000000000
C      -9.031300000000000      0.128900000000000     -0.488200000000000
C     -10.340000000000000     -0.024800000000000      0.288400000000000
C     -11.549200000000001      0.043800000000000     -0.641800000000000
C     -12.853999999999999     -0.150600000000000      0.117500000000000
H       7.338400000000000     -0.870700000000000     -2.208600000000000
H       8.378399999999999     -2.125200000000000     -1.549700000000000
H       4.929200000000000      0.608400000000000      1.865300000000000
H       4.913000000000000     -1.099100000000000      1.653000000000000
H       9.539800000000000     -0.449600000000000     -0.121500000000000
H       9.526100000000000      0.052400000000000     -1.820600000000000
H       5.237400000000000     -1.888000000000000     -1.591300000000000
H       5.006900000000000     -2.646600000000000      0.007700000000000
H       6.199300000000000     -3.276900000000000     -1.108500000000000
H       8.035600000000001     -3.044800000000000      0.688500000000000
H       8.259499999999999     -1.498700000000000      1.519200000000000
H       6.791900000000000     -2.439200000000000      1.782200000000000
H       3.681900000000000     -0.829500000000000     -0.546300000000000
H       3.770700000000000      0.902000000000000     -0.363600000000000
H       2.307300000000000     -0.989100000000000      1.526200000000000
H       2.354000000000000      0.766000000000000      1.670600000000000
H       1.209400000000000      0.989200000000000     -0.537500000000000
H       1.181500000000000     -0.767100000000000     -0.713300000000000
H      -0.210300000000000     -0.980100000000000      1.331000000000000
H      -0.138400000000000      0.759500000000000      1.593200000000000
H       6.331400000000000      3.130000000000000     -0.419300000000000
H       5.267500000000000      2.437900000000000      0.785900000000000
H       6.902900000000000      2.918200000000000      1.249300000000000
H      -1.376700000000000     -0.572400000000000     -0.853300000000000
H      -1.344200000000000      1.155100000000000     -0.538500000000000
H      -2.792800000000000      0.843300000000000      1.449400000000000
H      -2.777200000000000     -0.900400000000000      1.205600000000000
H      -3.933000000000000      1.144900000000000     -0.759000000000000
H      -3.898500000000000     -0.600500000000000     -1.019900000000000
H      -5.301200000000000      0.799000000000000      1.315700000000000
H      -5.272700000000000     -0.940900000000000      1.044100000000000
H      -6.476000000000000     -0.630700000000000     -1.116800000000000
H      -6.490200000000000      1.112600000000000     -0.867100000000000
H      -7.866000000000000      0.816800000000000      1.198800000000000
H      -7.838300000000000     -0.933100000000000      0.968800000000000
H      -8.969200000000001     -0.649400000000000     -1.258700000000000
H      -9.020500000000000      1.096600000000000     -1.004200000000000
H     -10.413300000000000      0.763600000000000      1.047200000000000
H     -10.340299999999999     -0.985000000000000      0.818600000000000
H     -11.470300000000000     -0.719900000000000     -1.425600000000000
H     -11.571300000000001      1.008300000000000     -1.164500000000000
H     -12.980300000000000      0.623100000000000      0.881400000000000
H     -12.884200000000000     -1.133900000000000      0.597500000000000
H     -14.753700000000000     -0.188500000000000     -0.288200000000000
