70

O       5.068100000000000     -3.207300000000000      0.075800000000000
O       2.987800000000000     -2.302200000000000     -0.097100000000000
C      -2.393200000000000     -0.784000000000000     -1.502300000000000
C      -1.943800000000000      0.220400000000000     -0.438900000000000
C      -2.146400000000000     -0.303000000000000     -2.943600000000000
C      -1.568000000000000      1.481700000000000     -0.757000000000000
C      -1.736300000000000     -2.161400000000000     -1.336100000000000
C      -2.505100000000000      1.163700000000000     -3.101000000000000
C      -1.648500000000000      2.014800000000000     -2.170800000000000
C      -1.035600000000000      2.489800000000000      0.228300000000000
C      -2.012000000000000     -0.281900000000000      0.982800000000000
C       0.411000000000000      2.957200000000000     -0.036900000000000
C      -3.405700000000000     -0.085500000000000      1.568900000000000
C       1.384500000000000      1.759800000000000     -0.059600000000000
C      -0.218900000000000     -2.035300000000000     -1.403500000000000
C      -2.249600000000000     -3.124100000000000     -2.400600000000000
C       2.810900000000000      2.144800000000000     -0.470500000000000
C      -3.536500000000000     -0.644000000000000      2.998500000000000
C       0.840600000000000      4.037200000000000      0.961700000000000
C       3.726900000000000      0.915500000000000     -0.499600000000000
C       3.892500000000000      0.239800000000000      0.879400000000000
C      -3.242600000000000     -2.146400000000000      2.997800000000000
C      -4.919000000000000     -0.389400000000000      3.601000000000000
C       4.837300000000000     -0.973000000000000      0.778200000000000
C       4.437500000000000      1.217500000000000      1.925900000000000
C       4.163900000000000     -2.204600000000000      0.219300000000000
H      -3.479100000000000     -0.903100000000000     -1.379100000000000
H      -2.767300000000000     -0.871600000000000     -3.645800000000000
H      -1.108700000000000     -0.422900000000000     -3.266800000000000
H      -2.019500000000000     -2.612300000000000     -0.379900000000000
H      -3.567800000000000      1.312900000000000     -2.871600000000000
H      -2.355100000000000      1.482500000000000     -4.138800000000000
H      -2.059700000000000      3.031500000000000     -2.166100000000000
H      -0.635000000000000      2.077400000000000     -2.585500000000000
H      -1.696400000000000      3.367500000000000      0.188100000000000
H      -1.105900000000000      2.154600000000000      1.265800000000000
H      -1.279600000000000      0.220500000000000      1.622300000000000
H      -1.693400000000000     -1.319500000000000      1.045800000000000
H       0.438900000000000      3.429400000000000     -1.027900000000000
H      -3.648400000000000      0.985100000000000      1.584900000000000
H      -4.156700000000000     -0.564500000000000      0.927500000000000
H       1.377400000000000      1.305800000000000      0.936800000000000
H       1.031000000000000      0.997200000000000     -0.761800000000000
H       0.158700000000000     -1.760400000000000     -2.391600000000000
H       0.231500000000000     -3.008500000000000     -1.171800000000000
H       0.183900000000000     -1.331400000000000     -0.670500000000000
H      -1.859200000000000     -2.904900000000000     -3.399600000000000
H      -3.344000000000000     -3.127100000000000     -2.443300000000000
H      -1.931600000000000     -4.145800000000000     -2.161700000000000
H       3.229500000000000      2.910700000000000      0.187200000000000
H       2.785600000000000      2.581900000000000     -1.476400000000000
H      -2.797300000000000     -0.148300000000000      3.640500000000000
H       0.958300000000000      3.619700000000000      1.967200000000000
H       0.091200000000000      4.834500000000000      1.013300000000000
H       1.785400000000000      4.504800000000000      0.670200000000000
H       3.335100000000000      0.192000000000000     -1.224700000000000
H       4.709800000000000      1.229200000000000     -0.873700000000000
H       2.921200000000000     -0.119200000000000      1.237100000000000
H      -2.183900000000000     -2.356200000000000      2.820900000000000
H      -3.484000000000000     -2.586300000000000      3.972200000000000
H      -3.834100000000000     -2.671900000000000      2.240300000000000
H      -5.137700000000000      0.683300000000000      3.623100000000000
H      -4.973800000000000     -0.763600000000000      4.628600000000000
H      -5.702700000000000     -0.882600000000000      3.016100000000000
H       5.196400000000000     -1.249400000000000      1.777200000000000
H       5.705400000000000     -0.729800000000000      0.155000000000000
H       5.374600000000000      1.675100000000000      1.591400000000000
H       3.721800000000000      2.015600000000000      2.144000000000000
H       4.632700000000000      0.705000000000000      2.874400000000000
H       4.660400000000000     -4.015900000000000     -0.301400000000000
