70

O      -3.189900000000000     -1.015100000000000     -0.853300000000000
O       3.014700000000000      2.210400000000000      1.750100000000000
C      -1.722600000000000      2.728800000000000     -0.121500000000000
C       2.289200000000000     -2.923100000000000     -1.759600000000000
C      -3.196100000000000      2.350800000000000     -0.298000000000000
C      -1.121500000000000      3.239300000000000     -1.433200000000000
C       0.892500000000000     -2.593200000000000     -1.224900000000000
C       3.269300000000000     -3.508300000000000     -0.738000000000000
C      -3.797700000000000      1.839100000000000      1.012900000000000
C       0.293000000000000      3.802500000000000     -1.272800000000000
C       0.160500000000000     -3.809900000000000     -0.652400000000000
C       3.494200000000000     -2.673700000000000      0.526400000000000
C      -5.281400000000000      1.481100000000000      0.897900000000000
C       1.342500000000000      2.741900000000000     -0.928500000000000
C      -1.307400000000000     -3.525200000000000     -0.317300000000000
C       4.011400000000000     -1.262200000000000      0.240000000000000
C      -5.621500000000000      0.273900000000000      0.013400000000000
C       2.735200000000000      3.373700000000000     -0.818700000000000
C      -1.481000000000000     -2.512400000000000      0.819600000000000
C       4.381600000000000     -0.534100000000000      1.535500000000000
C      -5.130700000000000     -1.064100000000000      0.568900000000000
C       3.832600000000000      2.352700000000000     -0.523000000000000
C      -2.948100000000000     -2.288000000000000      1.184900000000000
C       4.934600000000000      0.864300000000000      1.279300000000000
C      -3.694900000000000     -1.400200000000000      0.199800000000000
C       3.841600000000000      1.850900000000000      0.912600000000000
H      -1.634800000000000      3.502700000000000      0.650300000000000
H      -1.165500000000000      1.852900000000000      0.229700000000000
H       2.191900000000000     -3.634900000000000     -2.589200000000000
H       2.719600000000000     -2.013400000000000     -2.195500000000000
H      -3.280600000000000      1.592400000000000     -1.082300000000000
H      -3.760600000000000      3.227400000000000     -0.638500000000000
H      -1.760100000000000      4.037800000000000     -1.831200000000000
H      -1.119000000000000      2.435400000000000     -2.179200000000000
H       0.303100000000000     -2.175300000000000     -2.050600000000000
H       0.968200000000000     -1.804400000000000     -0.469500000000000
H       4.234900000000000     -3.657200000000000     -1.238000000000000
H       2.930000000000000     -4.507600000000000     -0.440300000000000
H      -3.699500000000000      2.626800000000000      1.771000000000000
H      -3.225000000000000      0.985000000000000      1.388300000000000
H       0.289800000000000      4.585300000000000     -0.504400000000000
H       0.576000000000000      4.288200000000000     -2.215100000000000
H       0.670700000000000     -4.171300000000000      0.247500000000000
H       0.192300000000000     -4.625400000000000     -1.385300000000000
H       4.221200000000000     -3.203700000000000      1.154800000000000
H       2.568200000000000     -2.616500000000000      1.110100000000000
H      -5.825400000000000      2.353900000000000      0.515100000000000
H      -5.672800000000000      1.298800000000000      1.906700000000000
H       1.349300000000000      1.967700000000000     -1.705200000000000
H       1.082500000000000      2.251100000000000      0.014200000000000
H      -1.781800000000000     -4.470800000000000     -0.026600000000000
H      -1.823100000000000     -3.182100000000000     -1.221000000000000
H       3.244100000000000     -0.691000000000000     -0.292700000000000
H       4.890900000000000     -1.317800000000000     -0.412600000000000
H      -5.270900000000000      0.435700000000000     -1.011200000000000
H      -6.716500000000000      0.222100000000000     -0.046000000000000
H       2.728800000000000      4.154000000000000     -0.048000000000000
H       2.973300000000000      3.867300000000000     -1.769200000000000
H      -1.019400000000000     -1.554200000000000      0.556800000000000
H      -0.955800000000000     -2.888500000000000      1.706100000000000
H       5.145800000000000     -1.116900000000000      2.064100000000000
H       3.505200000000000     -0.482100000000000      2.192700000000000
H      -5.747200000000000     -1.875300000000000      0.163900000000000
H      -5.239600000000000     -1.081200000000000      1.658600000000000
H       4.804400000000000      2.829100000000000     -0.697600000000000
H       3.747500000000000      1.495400000000000     -1.198300000000000
H      -2.986900000000000     -1.785900000000000      2.158700000000000
H      -3.479500000000000     -3.241800000000000      1.268800000000000
H       5.702800000000000      0.850100000000000      0.498700000000000
H       5.416300000000000      1.247100000000000      2.186800000000000
