70

O      -3.665400000000000     -3.557100000000000     -0.377100000000000
O      -6.752500000000000      0.489300000000000     -0.959300000000000
C       5.746700000000000     -0.296200000000000     -0.185700000000000
C       6.842200000000000      0.382100000000000      0.678900000000000
C       4.447100000000000      0.535200000000000     -0.209000000000000
C       6.958800000000000      1.869400000000000      0.390100000000000
C       4.409600000000000      1.822100000000000      0.216100000000000
C       5.639200000000000      2.568400000000000      0.686200000000000
C       3.220100000000000     -0.168800000000000     -0.745900000000000
C       6.274100000000000     -0.468400000000000     -1.627500000000000
C       5.507200000000000     -1.697400000000000      0.418500000000000
C       2.345900000000000     -0.799900000000000      0.343900000000000
C      -3.789800000000000     -2.398500000000000      0.461400000000000
C       3.156000000000000      2.657600000000000      0.299600000000000
C      -4.580600000000000     -1.338100000000000     -0.336900000000000
C      -2.361300000000000     -1.961700000000000      0.853800000000000
C       1.038300000000000     -1.379400000000000     -0.155300000000000
C      -4.800900000000000     -0.003300000000000      0.386900000000000
C      -1.523600000000000     -1.412400000000000     -0.312000000000000
C      -0.186400000000000     -0.922700000000000      0.173800000000000
C      -5.511100000000000      1.024600000000000     -0.507700000000000
C      -4.551000000000000     -2.837400000000000      1.719200000000000
C      -5.760500000000000      2.335000000000000      0.251300000000000
C       1.174400000000000     -2.524200000000000     -1.127400000000000
C      -6.483400000000000      3.411700000000000     -0.565500000000000
C      -6.793200000000000      4.670200000000000      0.229900000000000
H       7.814600000000000     -0.098800000000000      0.513100000000000
H       6.613600000000000      0.250800000000000      1.745800000000000
H       7.245900000000000      2.036100000000000     -0.654400000000000
H       7.752700000000000      2.309700000000000      1.004500000000000
H       5.667600000000000      3.563700000000000      0.226000000000000
H       5.551400000000000      2.721800000000000      1.769600000000000
H       3.508500000000000     -0.932400000000000     -1.476800000000000
H       2.619500000000000      0.534000000000000     -1.338200000000000
H       6.387300000000000      0.494200000000000     -2.138000000000000
H       5.602700000000000     -1.081500000000000     -2.238500000000000
H       7.251400000000000     -0.964900000000000     -1.632800000000000
H       5.088000000000000     -1.631800000000000      1.428800000000000
H       4.843700000000000     -2.313600000000000     -0.196700000000000
H       6.452900000000000     -2.247800000000000      0.498500000000000
H       2.881200000000000     -1.599300000000000      0.865900000000000
H       2.129500000000000     -0.049500000000000      1.115300000000000
H       3.040600000000000      3.055700000000000      1.313700000000000
H       2.236900000000000      2.116000000000000      0.069200000000000
H       3.223500000000000      3.501900000000000     -0.394600000000000
H      -5.555000000000000     -1.770700000000000     -0.603000000000000
H      -4.093200000000000     -1.163100000000000     -1.304300000000000
H      -1.825600000000000     -2.819800000000000      1.283200000000000
H      -2.416500000000000     -1.203300000000000      1.645700000000000
H      -3.845400000000000      0.415400000000000      0.719600000000000
H      -5.412200000000000     -0.183000000000000      1.279100000000000
H      -2.021900000000000     -0.546300000000000     -0.761300000000000
H      -1.444200000000000     -2.160900000000000     -1.104100000000000
H      -0.236200000000000     -0.080300000000000      0.863100000000000
H      -4.900000000000000      1.226300000000000     -1.394600000000000
H      -5.556500000000000     -3.189000000000000      1.461300000000000
H      -4.047100000000000     -3.679900000000000      2.207300000000000
H      -4.641600000000000     -2.028500000000000      2.450300000000000
H      -4.804600000000000      2.737100000000000      0.608900000000000
H      -6.370400000000000      2.121100000000000      1.138900000000000
H       1.245700000000000     -2.148300000000000     -2.152800000000000
H       0.353200000000000     -3.243100000000000     -1.063600000000000
H       2.083700000000000     -3.097700000000000     -0.913400000000000
H      -3.184600000000000     -4.241400000000000      0.118900000000000
H      -7.426000000000000      3.010600000000000     -0.955800000000000
H      -5.868800000000000      3.679000000000000     -1.433200000000000
H      -7.300900000000000      0.308500000000000     -0.176800000000000
H      -5.874100000000000      5.127000000000000      0.610100000000000
H      -7.442300000000000      4.444000000000000      1.081700000000000
H      -7.303000000000000      5.404100000000000     -0.402100000000000
