70

O      -3.769000000000000      3.768700000000000     -0.333800000000000
O      -6.587600000000000     -0.514600000000000     -0.838200000000000
C       5.219500000000000      0.604100000000000     -0.659800000000000
C       6.587000000000000      0.666000000000000      0.070800000000000
C       4.345100000000000     -0.551100000000000     -0.129300000000000
C       7.228600000000000     -0.705400000000000      0.200200000000000
C       4.855000000000000     -1.543000000000000      0.641700000000000
C       6.323700000000000     -1.637700000000000      0.993400000000000
C       2.886800000000000     -0.516200000000000     -0.531200000000000
C       4.536700000000000      1.972500000000000     -0.442700000000000
C       5.462500000000000      0.413100000000000     -2.173400000000000
C       2.038700000000000      0.204600000000000      0.518400000000000
C      -3.768300000000000      2.567800000000000      0.441200000000000
C       4.037300000000000     -2.649500000000000      1.260700000000000
C      -4.514000000000000      1.478700000000000     -0.361700000000000
C      -2.305800000000000      2.150300000000000      0.748700000000000
C       0.582100000000000      0.309200000000000      0.107200000000000
C      -4.579500000000000      0.105200000000000      0.329200000000000
C      -1.393800000000000      1.848300000000000     -0.453800000000000
C       0.021500000000000      1.521800000000000     -0.069900000000000
C      -5.260800000000000     -0.950500000000000     -0.554000000000000
C      -4.478700000000000      2.878400000000000      1.767000000000000
C      -5.298800000000000     -2.309600000000000      0.157300000000000
C      -0.122700000000000     -1.004400000000000     -0.091000000000000
C      -5.994000000000000     -3.392200000000000     -0.673300000000000
C      -6.051500000000000     -4.714700000000000      0.076200000000000
H       7.273300000000000      1.341500000000000     -0.455400000000000
H       6.456600000000000      1.085700000000000      1.078100000000000
H       7.429400000000000     -1.129900000000000     -0.790200000000000
H       8.198499999999999     -0.619700000000000      0.703700000000000
H       6.675300000000000     -2.666000000000000      0.844100000000000
H       6.433000000000000     -1.416800000000000      2.063100000000000
H       2.766600000000000     -0.030500000000000     -1.506300000000000
H       2.522400000000000     -1.536300000000000     -0.699500000000000
H       5.191400000000000      2.781800000000000     -0.790700000000000
H       4.342300000000000      2.163000000000000      0.618300000000000
H       3.602900000000000      2.075900000000000     -1.004400000000000
H       5.870200000000000     -0.578200000000000     -2.399200000000000
H       6.169000000000000      1.158600000000000     -2.556500000000000
H       4.539200000000000      0.523100000000000     -2.752600000000000
H       2.079200000000000     -0.341600000000000      1.470200000000000
H       2.426300000000000      1.198100000000000      0.751100000000000
H       4.326400000000000     -3.613400000000000      0.828600000000000
H       2.959000000000000     -2.540600000000000      1.132000000000000
H       4.220900000000000     -2.689100000000000      2.340100000000000
H      -4.055600000000000      1.374500000000000     -1.353200000000000
H      -5.533500000000000      1.833300000000000     -0.565100000000000
H      -2.290000000000000      1.297500000000000      1.438500000000000
H      -1.835900000000000      2.980200000000000      1.297000000000000
H      -3.574400000000000     -0.249600000000000      0.575500000000000
H      -5.138400000000000      0.204300000000000      1.266800000000000
H      -1.815000000000000      1.031300000000000     -1.048000000000000
H      -1.370900000000000      2.717200000000000     -1.123000000000000
H       0.640200000000000      2.401300000000000      0.105900000000000
H      -4.728400000000000     -1.043500000000000     -1.507100000000000
H      -4.021400000000000      3.746800000000000      2.255500000000000
H      -4.443300000000000      2.037500000000000      2.465900000000000
H      -5.528300000000000      3.141500000000000      1.593200000000000
H      -5.837500000000000     -2.206200000000000      1.108200000000000
H      -4.276800000000000     -2.629300000000000      0.394300000000000
H       0.091400000000000     -1.681000000000000      0.743300000000000
H      -1.209600000000000     -0.894800000000000     -0.133800000000000
H       0.200900000000000     -1.482100000000000     -1.020500000000000
H      -4.693800000000000      4.022400000000000     -0.494900000000000
H      -5.457900000000000     -3.534000000000000     -1.618700000000000
H      -7.015700000000000     -3.083900000000000     -0.921900000000000
H      -7.067300000000000     -0.446500000000000      0.004900000000000
H      -5.045500000000000     -5.073600000000000      0.315900000000000
H      -6.546900000000000     -5.475400000000000     -0.535200000000000
H      -6.612100000000000     -4.612100000000000      1.010900000000000
