70

O       3.376200000000000      1.828500000000000     -0.326900000000000
O       1.950400000000000      2.602400000000000      1.311000000000000
C      -2.642100000000000     -3.243800000000000      0.638700000000000
C      -2.918700000000000     -2.872800000000000     -0.822000000000000
C      -1.165400000000000     -3.574800000000000      0.892700000000000
C      -4.406700000000000     -2.675200000000000     -1.138400000000000
C      -0.252700000000000     -2.346500000000000      0.823900000000000
C      -4.866300000000000     -1.212600000000000     -1.119900000000000
C       1.226100000000000     -2.670900000000000      1.072700000000000
C      -5.052400000000000     -0.639500000000000      0.284600000000000
C       1.849000000000000     -3.486700000000000     -0.063800000000000
C      -5.594600000000000      0.795500000000000      0.276100000000000
C       3.355400000000000     -3.720100000000000      0.089300000000000
C      -4.642200000000000      1.850100000000000     -0.301100000000000
C       4.236900000000000     -2.465900000000000      0.120100000000000
C      -3.370800000000000      2.025000000000000      0.531600000000000
C       3.973000000000000     -1.503800000000000     -1.040100000000000
C      -2.451500000000000      3.100400000000000     -0.053200000000000
C       5.042200000000000     -0.419900000000000     -1.203200000000000
C      -1.232800000000000      3.313000000000000      0.849700000000000
C       5.332600000000000      0.436600000000000      0.033100000000000
C      -0.229800000000000      4.326600000000000      0.293700000000000
C       4.115000000000000      1.102200000000000      0.666100000000000
C       0.486000000000000      3.850800000000000     -0.938600000000000
C       1.588800000000000      3.092000000000000     -1.020300000000000
C       2.294300000000000      2.509100000000000      0.144200000000000
H      -2.957200000000000     -2.443800000000000      1.314200000000000
H      -3.237800000000000     -4.128100000000000      0.897100000000000
H      -2.549800000000000     -3.693800000000000     -1.450600000000000
H      -2.352200000000000     -1.982200000000000     -1.113000000000000
H      -1.077100000000000     -4.023000000000000      1.890100000000000
H      -0.844400000000000     -4.337200000000000      0.174900000000000
H      -5.038000000000000     -3.289100000000000     -0.485900000000000
H      -4.572300000000000     -3.043200000000000     -2.159700000000000
H      -0.345800000000000     -1.849200000000000     -0.147500000000000
H      -0.579900000000000     -1.622100000000000      1.580200000000000
H      -5.827300000000000     -1.153900000000000     -1.646700000000000
H      -4.159000000000000     -0.605600000000000     -1.695200000000000
H       1.758900000000000     -1.719900000000000      1.180500000000000
H       1.338000000000000     -3.207400000000000      2.022200000000000
H      -4.114200000000000     -0.673900000000000      0.842200000000000
H      -5.763500000000000     -1.270500000000000      0.832100000000000
H       1.368200000000000     -4.470600000000000     -0.110600000000000
H       1.645700000000000     -3.001900000000000     -1.025700000000000
H      -5.851100000000000      1.076700000000000      1.305100000000000
H      -6.532100000000000      0.820300000000000     -0.293000000000000
H       3.539600000000000     -4.298800000000000      1.003000000000000
H       3.684900000000000     -4.352800000000000     -0.744800000000000
H      -5.176200000000000      2.808200000000000     -0.335400000000000
H      -4.383300000000000      1.605500000000000     -1.336800000000000
H       5.285300000000000     -2.788500000000000      0.095800000000000
H       4.096500000000000     -1.949900000000000      1.075900000000000
H      -3.644400000000000      2.292100000000000      1.559600000000000
H      -2.815600000000000      1.081800000000000      0.578500000000000
H       3.924100000000000     -2.071300000000000     -1.977900000000000
H       2.994300000000000     -1.026900000000000     -0.914900000000000
H      -2.998800000000000      4.044900000000000     -0.156700000000000
H      -2.134900000000000      2.795100000000000     -1.057100000000000
H       5.980600000000000     -0.893900000000000     -1.518000000000000
H       4.743400000000000      0.235000000000000     -2.031400000000000
H      -0.735400000000000      2.351800000000000      1.027600000000000
H      -1.577700000000000      3.671600000000000      1.827800000000000
H       5.847700000000000     -0.163700000000000      0.791900000000000
H       6.036000000000000      1.221000000000000     -0.274000000000000
H       0.495100000000000      4.588700000000000      1.072600000000000
H      -0.746400000000000      5.265100000000000      0.056000000000000
H       3.459200000000000      0.352900000000000      1.121900000000000
H       4.451000000000000      1.793500000000000      1.448100000000000
H       0.052100000000000      4.186700000000000     -1.879500000000000
H       1.985600000000000      2.856100000000000     -2.004300000000000
