70

O      -3.826700000000000      3.735600000000000     -0.305900000000000
O      -4.877200000000000     -1.107300000000000     -1.716800000000000
C       4.962200000000000     -1.462400000000000      0.553700000000000
C       6.412500000000000     -1.185300000000000      1.031100000000000
C       4.404400000000000     -0.287500000000000     -0.276400000000000
C       7.284100000000000     -0.628500000000000     -0.082100000000000
C       5.205100000000000      0.691500000000000     -0.765000000000000
C       6.708800000000000      0.684300000000000     -0.595000000000000
C       2.911300000000000     -0.300300000000000     -0.522100000000000
C       4.947700000000000     -2.749400000000000     -0.300600000000000
C       4.115400000000000     -1.707000000000000      1.822100000000000
C       2.113900000000000      0.533000000000000      0.487700000000000
C      -3.783600000000000      2.524200000000000      0.463200000000000
C       4.710400000000000      1.908400000000000     -1.507000000000000
C      -4.509600000000000      1.433800000000000     -0.356000000000000
C      -2.297600000000000      2.216700000000000      0.750500000000000
C       0.636800000000000      0.656600000000000      0.174500000000000
C      -4.730400000000000      0.103300000000000      0.375400000000000
C      -1.440100000000000      2.002300000000000     -0.506900000000000
C       0.006100000000000      1.805100000000000     -0.141500000000000
C      -5.538800000000000     -0.890800000000000     -0.472800000000000
C      -4.509000000000000      2.808600000000000      1.785200000000000
C      -5.708400000000000     -2.228500000000000      0.260400000000000
C      -0.131600000000000     -0.640800000000000      0.187100000000000
C      -6.490200000000000     -3.286500000000000     -0.526100000000000
C      -6.575600000000000     -4.628900000000000      0.183200000000000
H       6.868000000000000     -2.101700000000000      1.427200000000000
H       6.403600000000000     -0.464500000000000      1.860700000000000
H       7.364500000000000     -1.349700000000000     -0.903500000000000
H       8.303100000000001     -0.462900000000000      0.286600000000000
H       7.191400000000000      0.919700000000000     -1.551600000000000
H       6.976800000000000      1.488600000000000      0.102300000000000
H       2.538400000000000     -1.330400000000000     -0.528600000000000
H       2.700000000000000      0.052700000000000     -1.539900000000000
H       5.466700000000000     -2.611000000000000     -1.255300000000000
H       3.928000000000000     -3.076300000000000     -0.531100000000000
H       5.435600000000000     -3.577500000000000      0.226500000000000
H       4.055100000000000     -0.806500000000000      2.443400000000000
H       3.099000000000000     -2.042400000000000      1.591900000000000
H       4.567100000000000     -2.493400000000000      2.439500000000000
H       2.201000000000000      0.118700000000000      1.496900000000000
H       2.548300000000000      1.539000000000000      0.552100000000000
H       5.079500000000000      2.817500000000000     -1.019400000000000
H       3.623600000000000      1.997100000000000     -1.553700000000000
H       5.084300000000000      1.895500000000000     -2.536200000000000
H      -3.987900000000000      1.271800000000000     -1.305900000000000
H      -5.492800000000000      1.825900000000000     -0.653500000000000
H      -2.221600000000000      1.342000000000000      1.408000000000000
H      -1.869000000000000      3.062400000000000      1.307100000000000
H      -5.260800000000000      0.264200000000000      1.319500000000000
H      -3.752700000000000     -0.331800000000000      0.612500000000000
H      -1.508600000000000      2.874500000000000     -1.167800000000000
H      -1.799500000000000      1.151800000000000     -1.094100000000000
H       0.598800000000000      2.719100000000000     -0.140600000000000
H      -6.525100000000000     -0.469100000000000     -0.696600000000000
H      -5.574600000000000      2.999400000000000      1.613900000000000
H      -4.411400000000000      1.984900000000000      2.498700000000000
H      -4.108400000000000      3.713100000000000      2.258100000000000
H      -6.205500000000000     -2.056700000000000      1.222900000000000
H      -4.715100000000000     -2.640700000000000      0.481500000000000
H       0.122300000000000     -1.242000000000000     -0.691800000000000
H      -1.216700000000000     -0.518800000000000      0.204900000000000
H       0.126200000000000     -1.217500000000000      1.082600000000000
H      -4.759700000000000      3.973400000000000     -0.442200000000000
H      -6.020800000000000     -3.443500000000000     -1.504200000000000
H      -7.504800000000000     -2.917200000000000     -0.716600000000000
H      -3.997900000000000     -1.476200000000000     -1.525700000000000
H      -7.072300000000000     -4.526200000000000      1.153100000000000
H      -5.577700000000000     -5.046300000000000      0.350700000000000
H      -7.147000000000000     -5.342000000000000     -0.419000000000000
