70

O      -3.729100000000000      1.190300000000000      0.032800000000000
O      -3.373300000000000      3.190400000000000     -1.059900000000000
C      -4.618000000000000     -0.835100000000000     -0.904400000000000
C      -4.226400000000000      0.614900000000000     -1.179600000000000
C      -3.419500000000000     -1.646000000000000     -0.401100000000000
C      -5.770700000000000     -0.905700000000000      0.110000000000000
C      -3.798000000000000     -3.113400000000000     -0.176500000000000
C      -5.129500000000000     -3.299000000000000      0.506900000000000
C      -6.005900000000000     -2.288900000000000      0.642700000000000
C      -5.434600000000000      1.427000000000000     -1.643600000000000
C      -3.105000000000000      0.681200000000000     -2.214100000000000
C      -5.420700000000000     -4.676600000000000      1.024100000000000
C      -3.334900000000000      2.495400000000000     -0.053900000000000
C      -2.807900000000000      2.940100000000000      1.292700000000000
C      -1.625600000000000      2.103100000000000      1.783400000000000
C      -0.408000000000000      2.218400000000000      0.859800000000000
C       0.796100000000000      1.400400000000000      1.336900000000000
C       1.988700000000000      1.454200000000000      0.378300000000000
C       3.171400000000000      0.649400000000000      0.924500000000000
C       4.391700000000000      0.657700000000000     -0.002000000000000
C       5.597900000000000     -0.084000000000000      0.580200000000000
C       6.836600000000000     -0.025100000000000     -0.319500000000000
C       8.036099999999999     -0.787100000000000      0.248400000000000
C       9.264799999999999     -0.636200000000000     -0.651400000000000
C      10.455200000000000     -1.422700000000000     -0.103000000000000
C      11.668300000000000     -1.302900000000000     -1.011700000000000
H      -4.965400000000000     -1.294400000000000     -1.841900000000000
H      -3.046600000000000     -1.229200000000000      0.543700000000000
H      -2.584000000000000     -1.623500000000000     -1.108400000000000
H      -6.700200000000000     -0.572000000000000     -0.366100000000000
H      -5.593400000000000     -0.246000000000000      0.967700000000000
H      -3.006200000000000     -3.587800000000000      0.415700000000000
H      -3.830700000000000     -3.631500000000000     -1.143200000000000
H      -6.947400000000000     -2.455700000000000      1.159400000000000
H      -6.077800000000000      1.716700000000000     -0.804800000000000
H      -6.038100000000000      0.852300000000000     -2.356500000000000
H      -5.175800000000000      2.350200000000000     -2.170200000000000
H      -2.122000000000000      0.481400000000000     -1.772900000000000
H      -3.026200000000000      1.649100000000000     -2.718700000000000
H      -3.273300000000000     -0.044600000000000     -3.018900000000000
H      -4.676800000000000     -4.966400000000000      1.773100000000000
H      -6.408500000000000     -4.742100000000000      1.492200000000000
H      -5.391200000000000     -5.402600000000000      0.205200000000000
H      -3.634200000000000      2.892800000000000      2.011100000000000
H      -2.515200000000000      3.993400000000000      1.212500000000000
H      -1.917100000000000      1.049900000000000      1.872400000000000
H      -1.348500000000000      2.442100000000000      2.788800000000000
H      -0.677800000000000      1.883900000000000     -0.148700000000000
H      -0.114400000000000      3.272000000000000      0.775600000000000
H       1.105000000000000      1.765700000000000      2.324200000000000
H       0.489000000000000      0.355300000000000      1.468000000000000
H       1.692700000000000      1.057000000000000     -0.599900000000000
H       2.292500000000000      2.496900000000000      0.227100000000000
H       3.461200000000000      1.056300000000000      1.901400000000000
H       2.859200000000000     -0.388600000000000      1.093700000000000
H       4.118400000000000      0.207900000000000     -0.964300000000000
H       4.676700000000000      1.697000000000000     -0.207500000000000
H       5.847000000000000      0.343800000000000      1.559100000000000
H       5.325700000000000     -1.132600000000000      0.752500000000000
H       7.113900000000000      1.025300000000000     -0.472700000000000
H       6.584300000000000     -0.433000000000000     -1.306200000000000
H       8.268400000000000     -0.410700000000000      1.251900000000000
H       7.778200000000000     -1.847900000000000      0.351900000000000
H       9.531800000000000      0.424100000000000     -0.736800000000000
H       9.024800000000001     -0.991400000000000     -1.661100000000000
H      10.187600000000000     -2.480800000000000     -0.000600000000000
H      10.715199999999999     -1.055500000000000      0.896600000000000
H      11.981700000000000     -0.258800000000000     -1.111800000000000
H      12.507899999999999     -1.871700000000000     -0.600000000000000
H      11.450500000000000     -1.693900000000000     -2.010700000000000
