70

O      -1.912800000000000     -0.436300000000000     -1.135900000000000
O       1.920200000000000     -0.436700000000000      1.144300000000000
C      -2.287100000000000      0.273400000000000      0.049400000000000
C       2.287000000000000      0.270500000000000     -0.044800000000000
C      -3.290600000000000     -0.570700000000000      0.881700000000000
C       3.282000000000000     -0.576900000000000     -0.883600000000000
C      -2.944200000000000      1.595000000000000     -0.398600000000000
C       2.950500000000000      1.591300000000000      0.396400000000000
C      -4.607400000000000     -0.784200000000000      0.112900000000000
C       4.604400000000000     -0.792400000000000     -0.124800000000000
C      -4.262700000000000      1.375500000000000     -1.157400000000000
C       4.274200000000000      1.369700000000000      1.145200000000000
C      -1.006000000000000      0.592800000000000      0.830200000000000
C       1.000500000000000      0.591900000000000     -0.815900000000000
C      -5.234000000000000      0.537100000000000     -0.322200000000000
C       5.237300000000000      0.528100000000000      0.303600000000000
C      -2.743700000000000     -1.936300000000000      1.314400000000000
C       2.728700000000000     -1.941800000000000     -1.310400000000000
C       0.006000000000000      1.363200000000000      0.013300000000000
C      -4.895500000000000      2.714500000000000     -1.534300000000000
C       4.913100000000000      2.707800000000000      1.515400000000000
C      -2.909400000000000     -2.954300000000000      0.191500000000000
C      -3.443600000000000     -2.410200000000000      2.583500000000000
C       2.900900000000000     -2.958700000000000     -0.187400000000000
C       3.417700000000000     -2.419000000000000     -2.584300000000000
C       0.014500000000000      2.706500000000000      0.017900000000000
H      -3.519400000000000      0.015700000000000      1.783600000000000
H       3.505200000000000      0.007800000000000     -1.788000000000000
H      -2.295400000000000      2.150700000000000     -1.084400000000000
H      -3.129400000000000      2.234000000000000      0.475000000000000
H       2.310800000000000      2.148500000000000      1.089100000000000
H       3.130200000000000      2.229300000000000     -0.479000000000000
H      -5.337700000000000     -1.323700000000000      0.725900000000000
H      -4.460300000000000     -1.360500000000000     -0.807100000000000
H       5.328600000000000     -1.334300000000000     -0.742800000000000
H       4.463100000000000     -1.367100000000000      0.797100000000000
H      -4.049300000000000      0.835200000000000     -2.089100000000000
H       4.067000000000000      0.831100000000000      2.079200000000000
H      -1.254200000000000      1.151500000000000      1.742600000000000
H      -0.518900000000000     -0.322900000000000      1.167800000000000
H       1.241700000000000      1.149200000000000     -1.731000000000000
H       0.509800000000000     -0.323600000000000     -1.147900000000000
H      -6.143900000000000      0.333900000000000     -0.899900000000000
H      -5.544600000000000      1.099000000000000      0.568100000000000
H       6.151100000000000      0.323600000000000      0.874500000000000
H       5.542100000000000      1.088100000000000     -0.589800000000000
H      -1.681500000000000     -1.881600000000000      1.561300000000000
H       1.664800000000000     -1.885100000000000     -1.549200000000000
H      -5.134800000000000      3.307200000000000     -0.644900000000000
H      -5.821700000000000      2.560800000000000     -2.097900000000000
H      -4.216600000000000      3.302800000000000     -2.160600000000000
H       5.146700000000000      3.298900000000000      0.623300000000000
H       5.843400000000000      2.552800000000000      2.071900000000000
H       4.240500000000000      3.298400000000000      2.146300000000000
H      -1.578100000000000      0.195600000000000     -1.793800000000000
H       1.586800000000000      0.195900000000000      1.802200000000000
H      -3.946800000000000     -3.278300000000000      0.054700000000000
H      -2.359200000000000     -3.865300000000000      0.461200000000000
H      -2.501200000000000     -2.638800000000000     -0.769200000000000
H      -3.027900000000000     -3.368600000000000      2.914200000000000
H      -3.303200000000000     -1.693400000000000      3.399700000000000
H      -4.518800000000000     -2.553200000000000      2.438600000000000
H       2.346400000000000     -3.868800000000000     -0.451700000000000
H       2.500800000000000     -2.641100000000000      0.775900000000000
H       3.938500000000000     -3.284900000000000     -0.058300000000000
H       3.272600000000000     -1.703000000000000     -3.400300000000000
H       4.493700000000000     -2.564300000000000     -2.447400000000000
H       2.997300000000000     -3.376800000000000     -2.910400000000000
H      -0.689300000000000      3.274900000000000      0.616800000000000
H       0.723000000000000      3.272100000000000     -0.578100000000000
