71

O       5.147500000000000     -1.155400000000000      0.871000000000000
N       3.316600000000000     -1.081700000000000     -0.561400000000000
C      -0.253700000000000     -2.098000000000000     -0.505400000000000
C      -2.634900000000000     -1.533300000000000      0.110000000000000
C      -1.514900000000000     -1.337100000000000     -0.910100000000000
C       0.468700000000000     -1.377400000000000      0.639700000000000
C       0.677100000000000     -2.282700000000000     -1.710500000000000
C       2.696600000000000     -2.321400000000000     -0.152400000000000
C       1.758000000000000     -2.097800000000000      1.035900000000000
C       1.974100000000000     -2.994700000000000     -1.322800000000000
C      -3.672500000000000     -0.408000000000000     -0.001300000000000
C      -3.296600000000000     -2.906300000000000     -0.068900000000000
C      -4.830700000000000     -0.610900000000000      0.973000000000000
C      -4.455400000000000     -3.105000000000000      0.905400000000000
C      -5.480200000000000     -1.980100000000000      0.798100000000000
C       4.494000000000000     -0.603900000000000     -0.011600000000000
C       4.929300000000000      0.718900000000000     -0.610800000000000
C       5.023100000000000      1.832200000000000      0.431500000000000
C       3.680100000000000      2.106500000000000      1.116200000000000
C       2.609000000000000      2.497400000000000      0.094800000000000
C       1.246100000000000      2.796000000000000      0.727700000000000
C       0.158100000000000      3.114100000000000     -0.301400000000000
C      -1.218500000000000      3.354200000000000      0.328500000000000
C      -2.320900000000000      3.599400000000000     -0.705200000000000
C      -3.693000000000000      3.850800000000000     -0.074600000000000
C      -4.807000000000000      4.024000000000000     -1.095600000000000
H      -0.519800000000000     -3.103000000000000     -0.157000000000000
H      -2.232800000000000     -1.485400000000000      1.128300000000000
H      -1.275200000000000     -0.270600000000000     -1.013000000000000
H      -1.860200000000000     -1.667000000000000     -1.898400000000000
H       0.707200000000000     -0.349300000000000      0.341100000000000
H      -0.165500000000000     -1.306000000000000      1.528700000000000
H       0.169700000000000     -2.868200000000000     -2.486900000000000
H       0.909300000000000     -1.307600000000000     -2.156300000000000
H       3.503300000000000     -2.988700000000000      0.176000000000000
H       1.495900000000000     -3.071400000000000      1.469600000000000
H       2.263700000000000     -1.527400000000000      1.824400000000000
H       2.633700000000000     -3.049100000000000     -2.197200000000000
H       1.734000000000000     -4.028400000000000     -1.042700000000000
H      -4.064400000000000     -0.360900000000000     -1.025400000000000
H      -3.198200000000000      0.558500000000000      0.203000000000000
H      -3.672700000000000     -3.009600000000000     -1.094900000000000
H      -2.575100000000000     -3.715100000000000      0.085600000000000
H      -5.579700000000000      0.174800000000000      0.822300000000000
H      -4.464100000000000     -0.509000000000000      2.001900000000000
H      -4.067000000000000     -3.148900000000000      1.930400000000000
H      -4.942700000000000     -4.066300000000000      0.707300000000000
H      -6.260200000000000     -2.117900000000000      1.555300000000000
H      -5.972800000000000     -2.027500000000000     -0.180900000000000
H       2.830800000000000     -0.516000000000000     -1.250200000000000
H       4.300000000000000      1.008500000000000     -1.457400000000000
H       5.927300000000000      0.551900000000000     -1.036000000000000
H       5.388000000000000      2.747000000000000     -0.050100000000000
H       5.757600000000000      1.560900000000000      1.199300000000000
H       3.352900000000000      1.229000000000000      1.685600000000000
H       3.810700000000000      2.920800000000000      1.838700000000000
H       2.455700000000000      1.694100000000000     -0.631000000000000
H       2.943800000000000      3.377300000000000     -0.468200000000000
H       0.931900000000000      1.933200000000000      1.327600000000000
H       1.347200000000000      3.641000000000000      1.419800000000000
H       0.083800000000000      2.281100000000000     -1.011600000000000
H       0.452000000000000      3.998800000000000     -0.879200000000000
H      -1.158300000000000      4.214400000000000      1.006300000000000
H      -1.489600000000000      2.485600000000000      0.941400000000000
H      -2.385000000000000      2.730700000000000     -1.372200000000000
H      -2.048500000000000      4.459100000000000     -1.329600000000000
H      -3.949400000000000      3.014200000000000      0.586100000000000
H      -3.643900000000000      4.747700000000000      0.554300000000000
H      -5.761200000000000      4.204000000000000     -0.590800000000000
H      -4.603200000000000      4.873800000000000     -1.754600000000000
H      -4.911900000000000      3.126700000000000     -1.713600000000000
