71

O       7.277700000000000     -0.390900000000000     -1.851600000000000
N       2.172000000000000      0.568600000000000      0.082100000000000
C       4.624100000000000      0.878600000000000     -0.159600000000000
C       6.243900000000000     -1.185600000000000      0.218900000000000
C       4.814800000000000     -0.614500000000000      0.127300000000000
C       5.801100000000000      1.679600000000000      0.425800000000000
C       7.304200000000000     -0.249800000000000     -0.428300000000000
C       3.312600000000000      1.378500000000000      0.527300000000000
C       7.183000000000000      1.236200000000000     -0.061700000000000
C       4.491400000000000      1.142700000000000     -1.679400000000000
C       3.729200000000000     -1.363400000000000      0.418000000000000
C       2.326900000000000     -0.825900000000000      0.511200000000000
C       6.605400000000000     -1.364700000000000      1.714700000000000
C       6.337700000000000     -2.579700000000000     -0.452500000000000
C       0.905400000000000      1.124500000000000      0.550200000000000
C      -0.294500000000000      0.332500000000000      0.027800000000000
C      -1.637600000000000      0.882300000000000      0.517800000000000
C      -2.808800000000000      0.103100000000000     -0.086600000000000
C      -4.150000000000000      0.633800000000000      0.424700000000000
C      -5.357200000000000     -0.131600000000000     -0.125000000000000
C      -6.701500000000000      0.445000000000000      0.327700000000000
C      -7.868800000000000     -0.314600000000000     -0.308300000000000
C      -9.242400000000000      0.205000000000000      0.126400000000000
C     -10.408200000000001     -0.600500000000000     -0.451100000000000
C     -11.749599999999999     -0.084600000000000      0.071800000000000
C     -12.910700000000000     -0.904500000000000     -0.467900000000000
H       5.678800000000000      2.749800000000000      0.212900000000000
H       5.783500000000000      1.601300000000000      1.521400000000000
H       8.306200000000000     -0.589100000000000     -0.134200000000000
H       3.151200000000000      2.431200000000000      0.259300000000000
H       3.406700000000000      1.342500000000000      1.622300000000000
H       7.901500000000000      1.466200000000000      0.735500000000000
H       7.472200000000000      1.858800000000000     -0.917700000000000
H       4.199600000000000      2.183000000000000     -1.867000000000000
H       5.418500000000000      0.981400000000000     -2.229100000000000
H       3.733300000000000      0.499700000000000     -2.141200000000000
H       3.839300000000000     -2.411300000000000      0.681000000000000
H       1.707600000000000     -1.472300000000000     -0.120700000000000
H       2.002100000000000     -0.956500000000000      1.552000000000000
H       6.570700000000000     -0.420200000000000      2.266700000000000
H       5.921300000000000     -2.059900000000000      2.215600000000000
H       7.617000000000000     -1.772500000000000      1.826700000000000
H       5.937200000000000     -2.564100000000000     -1.472700000000000
H       7.379500000000000     -2.917700000000000     -0.506600000000000
H       5.788700000000000     -3.346200000000000      0.105500000000000
H       0.809700000000000      2.158600000000000      0.195500000000000
H       0.874900000000000      1.159700000000000      1.647200000000000
H       8.018500000000000      0.124800000000000     -2.213300000000000
H      -0.279500000000000      0.333700000000000     -1.069700000000000
H      -0.245400000000000     -0.713900000000000      0.348700000000000
H      -1.677800000000000      0.825900000000000      1.612300000000000
H      -1.722200000000000      1.940900000000000      0.244300000000000
H      -2.777900000000000      0.176700000000000     -1.180200000000000
H      -2.716300000000000     -0.959300000000000      0.169600000000000
H      -4.167600000000000      0.585500000000000      1.520600000000000
H      -4.242900000000000      1.692800000000000      0.153400000000000
H      -5.313200000000000     -0.121200000000000     -1.221200000000000
H      -5.288500000000000     -1.181900000000000      0.184300000000000
H      -6.774500000000000      0.390600000000000      1.420400000000000
H      -6.761300000000000      1.504100000000000      0.050500000000000
H      -7.790100000000000     -1.377000000000000     -0.045700000000000
H      -7.792800000000000     -0.252300000000000     -1.400900000000000
H      -9.341400000000000      1.255500000000000     -0.173800000000000
H      -9.298299999999999      0.182600000000000      1.221900000000000
H     -10.291200000000000     -1.656900000000000     -0.180600000000000
H     -10.388100000000000     -0.542700000000000     -1.546000000000000
H     -11.763199999999999     -0.123700000000000      1.167300000000000
H     -11.882899999999999      0.964400000000000     -0.217300000000000
H     -13.859299999999999     -0.517600000000000     -0.082900000000000
H     -12.945200000000000     -0.862900000000000     -1.561300000000000
H     -12.824299999999999     -1.953300000000000     -0.166200000000000
