71

O       1.883000000000000      1.976700000000000      0.000200000000000
N       3.169800000000000      0.047100000000000     -0.009000000000000
C       4.448000000000000      0.716800000000000     -0.013900000000000
C       3.232600000000000     -1.394500000000000     -0.011700000000000
C       4.614900000000000      1.563200000000000      1.250400000000000
C       4.610300000000000      1.565300000000000     -1.277800000000000
C       3.937900000000000     -1.903100000000000      1.247900000000000
C       3.921100000000000     -1.904700000000000     -1.280300000000000
C       5.937600000000000      2.325200000000000      1.246700000000000
C       5.933800000000000      2.325800000000000     -1.278100000000000
C       4.065300000000000     -3.424300000000000      1.246100000000000
C       4.046800000000000     -3.425900000000000     -1.278500000000000
C       6.099000000000000      3.167300000000000     -0.015800000000000
C       4.748400000000000     -3.930800000000000     -0.020900000000000
C       1.957300000000000      0.745100000000000     -0.002200000000000
C       0.693200000000000     -0.105700000000000     -0.000500000000000
C      -0.583000000000000      0.738400000000000      0.007100000000000
C      -1.864600000000000     -0.095200000000000      0.101200000000000
C      -3.176900000000000      0.694400000000000      0.049500000000000
C      -4.420300000000000     -0.190000000000000      0.170300000000000
C      -5.732200000000000      0.593200000000000      0.058700000000000
C      -6.975300000000000     -0.298200000000000      0.105200000000000
C      -8.253299999999999      0.522500000000000     -0.082900000000000
C      -9.498799999999999     -0.362000000000000     -0.004700000000000
C     -10.776800000000000      0.462200000000000     -0.158700000000000
C     -12.017899999999999     -0.408900000000000     -0.048100000000000
H       5.273600000000000     -0.001600000000000     -0.017300000000000
H       2.239400000000000     -1.845500000000000     -0.004800000000000
H       3.807900000000000      2.294700000000000      1.362200000000000
H       4.569700000000000      0.924500000000000      2.140800000000000
H       4.560700000000000      0.927800000000000     -2.168900000000000
H       3.802500000000000      2.296800000000000     -1.384400000000000
H       4.945800000000000     -1.490700000000000      1.362300000000000
H       3.377800000000000     -1.589200000000000      2.137800000000000
H       3.349800000000000     -1.590500000000000     -2.162800000000000
H       4.927500000000000     -1.491900000000000     -1.406800000000000
H       6.768800000000000      1.612800000000000      1.318800000000000
H       5.994500000000000      2.970800000000000      2.130500000000000
H       5.988500000000000      2.971600000000000     -2.161700000000000
H       6.764100000000000      1.612900000000000     -1.352800000000000
H       3.067800000000000     -3.873700000000000      1.326900000000000
H       4.632100000000000     -3.748700000000000      2.126200000000000
H       4.600300000000000     -3.752100000000000     -2.166300000000000
H       3.047900000000000     -3.874700000000000     -1.344000000000000
H       7.085400000000000      3.644700000000000     -0.017200000000000
H       5.353900000000000      3.972400000000000     -0.014500000000000
H       4.761100000000000     -5.026600000000000     -0.020300000000000
H       5.793900000000000     -3.598700000000000     -0.028700000000000
H       0.685700000000000     -0.736600000000000     -0.896400000000000
H       0.695900000000000     -0.734500000000000      0.897100000000000
H      -0.556400000000000      1.439700000000000      0.850700000000000
H      -0.617400000000000      1.350600000000000     -0.903000000000000
H      -1.866600000000000     -0.827600000000000     -0.716300000000000
H      -1.838100000000000     -0.673400000000000      1.033600000000000
H      -3.182000000000000      1.436500000000000      0.857100000000000
H      -3.218400000000000      1.252300000000000     -0.893900000000000
H      -4.396800000000000     -0.721300000000000      1.129600000000000
H      -4.392300000000000     -0.954400000000000     -0.616100000000000
H      -5.730000000000000      1.156700000000000     -0.882800000000000
H      -5.781400000000000      1.330800000000000      0.869200000000000
H      -6.910800000000000     -1.060300000000000     -0.680700000000000
H      -7.009200000000000     -0.825700000000000      1.066000000000000
H      -8.224700000000000      1.033000000000000     -1.053200000000000
H      -8.306100000000001      1.299100000000000      0.689800000000000
H      -9.456899999999999     -1.127600000000000     -0.788900000000000
H      -9.515499999999999     -0.886700000000000      0.958400000000000
H     -10.777500000000000      0.969900000000000     -1.130200000000000
H     -10.814800000000000      1.239200000000000      0.613600000000000
H     -12.064100000000000     -0.904400000000000      0.927000000000000
H     -12.920000000000000      0.200200000000000     -0.162400000000000
H     -12.027100000000001     -1.179100000000000     -0.826000000000000
