71

O       9.068500000000000      0.123700000000000     -1.333300000000000
N       9.189900000000000      0.038300000000000      0.952200000000000
C     -10.366500000000000     -0.175200000000000     -0.300200000000000
C     -10.627900000000000      0.804600000000000      0.839300000000000
C     -11.583399999999999     -1.092100000000000     -0.226300000000000
C     -12.125700000000000      1.078900000000000      0.751900000000000
C     -12.742200000000000     -0.147300000000000      0.076700000000000
C      -9.048500000000001     -0.916900000000000     -0.161600000000000
C      -7.824000000000000     -0.001200000000000     -0.220500000000000
C      -6.496500000000000     -0.759400000000000     -0.152300000000000
C      -5.306200000000000      0.198900000000000     -0.239500000000000
C      -3.977900000000000     -0.552800000000000     -0.137800000000000
C      -2.789200000000000      0.408200000000000     -0.191600000000000
C      -1.462200000000000     -0.340400000000000     -0.056500000000000
C      -0.272200000000000      0.616700000000000     -0.143700000000000
C       1.055500000000000     -0.135800000000000     -0.041900000000000
C       2.244800000000000      0.824600000000000     -0.095300000000000
C       3.573300000000000      0.069500000000000     -0.027000000000000
C       4.763100000000000      1.027600000000000     -0.114100000000000
C       6.092200000000000      0.266900000000000     -0.079000000000000
C      10.411700000000000     -0.598500000000000      0.421300000000000
C       7.299900000000000      1.197200000000000     -0.133700000000000
C      10.118100000000000     -0.796500000000000     -1.061700000000000
C       8.567500000000001      0.425600000000000     -0.115000000000000
C      10.650200000000000     -1.921200000000000      1.141800000000000
C      11.587600000000000      0.356500000000000      0.647800000000000
H     -10.384499999999999      0.367200000000000     -1.255400000000000
H     -10.047000000000001      1.727300000000000      0.746400000000000
H     -10.390800000000000      0.351200000000000      1.809700000000000
H     -11.477100000000000     -1.818700000000000      0.588700000000000
H     -11.741899999999999     -1.650500000000000     -1.154100000000000
H     -12.315099999999999      1.970900000000000      0.143400000000000
H     -12.556699999999999      1.259600000000000      1.741800000000000
H     -13.491400000000001     -0.628900000000000      0.713200000000000
H     -13.243499999999999      0.152600000000000     -0.850800000000000
H      -8.975099999999999     -1.660600000000000     -0.965200000000000
H      -9.028700000000001     -1.478500000000000      0.781200000000000
H      -7.860900000000000      0.716700000000000      0.607400000000000
H      -7.857500000000000      0.582300000000000     -1.149000000000000
H      -6.448300000000000     -1.326000000000000      0.785500000000000
H      -6.445100000000000     -1.485300000000000     -0.972600000000000
H      -5.345600000000000      0.750600000000000     -1.186600000000000
H      -5.371400000000000      0.938000000000000      0.568400000000000
H      -3.948500000000000     -1.119000000000000      0.801200000000000
H      -3.902400000000000     -1.279400000000000     -0.955900000000000
H      -2.807300000000000      0.959200000000000     -1.139800000000000
H      -2.875500000000000      1.147700000000000      0.613800000000000
H      -1.436100000000000     -0.874500000000000      0.901100000000000
H      -1.384700000000000     -1.094100000000000     -0.849500000000000
H      -0.309600000000000      1.166200000000000     -1.092200000000000
H      -0.338800000000000      1.357700000000000      0.662200000000000
H       1.086300000000000     -0.704400000000000      0.895500000000000
H       1.129300000000000     -0.860200000000000     -0.862100000000000
H       2.182300000000000      1.535900000000000      0.737100000000000
H       2.202400000000000      1.408100000000000     -1.023200000000000
H       3.625800000000000     -0.499600000000000      0.909000000000000
H       3.625900000000000     -0.654600000000000     -0.849200000000000
H       4.701800000000000      1.611200000000000     -1.040600000000000
H       4.724600000000000      1.738400000000000      0.720200000000000
H       6.142500000000000     -0.341400000000000      0.833200000000000
H       6.134000000000000     -0.436200000000000     -0.920700000000000
H       7.295300000000000      1.879300000000000      0.724100000000000
H       7.269600000000000      1.815000000000000     -1.038400000000000
H       9.756000000000000     -1.803400000000000     -1.297900000000000
H      10.977399999999999     -0.577400000000000     -1.703300000000000
H      10.805099999999999     -1.763300000000000      2.215100000000000
H      11.530400000000000     -2.436300000000000      0.742400000000000
H       9.788500000000001     -2.590300000000000      1.037000000000000
H      11.727100000000000      0.561900000000000      1.715200000000000
H      11.421500000000000      1.319900000000000      0.152200000000000
H      12.520000000000000     -0.066500000000000      0.258500000000000
