71

O      -7.166200000000000     -0.122300000000000      1.182700000000000
N       5.445200000000000     -1.271300000000000     -0.379900000000000
C      -0.027000000000000      1.127500000000000     -0.160500000000000
C      -1.471700000000000      0.574200000000000     -0.220500000000000
C       0.693400000000000     -0.103600000000000      0.442900000000000
C      -1.293300000000000     -0.884100000000000     -0.702600000000000
C       0.167600000000000     -1.266300000000000     -0.401000000000000
C       0.157200000000000      2.319900000000000      0.800000000000000
C      -2.464200000000000      1.360400000000000     -1.064900000000000
C       2.163400000000000      0.158600000000000      0.628300000000000
C       0.491800000000000      1.510300000000000     -1.570500000000000
C       1.644900000000000      2.607400000000000      1.071400000000000
C       2.435900000000000      1.363000000000000      1.506200000000000
C      -3.700900000000000      0.528900000000000     -1.465000000000000
C      -2.919300000000000      2.613300000000000     -0.307300000000000
C       3.150600000000000     -0.575600000000000      0.096700000000000
C      -4.535100000000000      0.063300000000000     -0.265900000000000
C       4.605600000000000     -0.294600000000000      0.306000000000000
C      -5.785000000000000     -0.699900000000000     -0.727100000000000
C      -6.672300000000000     -1.225600000000000      0.420600000000000
C       6.855900000000000     -0.989400000000000     -0.157200000000000
C      -7.877400000000000     -1.976700000000000     -0.155000000000000
C      -5.907500000000000     -2.138500000000000      1.380000000000000
C       7.154700000000000     -1.045100000000000      1.345600000000000
C       7.687100000000000     -2.041700000000000     -0.898700000000000
C       7.166900000000000      0.407700000000000     -0.704500000000000
H      -1.855000000000000      0.511300000000000      0.809300000000000
H       0.301500000000000     -0.276300000000000      1.459600000000000
H      -1.449900000000000     -0.998100000000000     -1.780300000000000
H      -1.978200000000000     -1.565200000000000     -0.187800000000000
H       0.230400000000000     -2.218900000000000      0.135500000000000
H       0.722200000000000     -1.379300000000000     -1.339400000000000
H      -0.342500000000000      2.116400000000000      1.755500000000000
H      -0.285200000000000      3.233800000000000      0.397600000000000
H      -2.014800000000000      1.679300000000000     -2.011000000000000
H       0.246600000000000      0.757400000000000     -2.326400000000000
H       1.579000000000000      1.633900000000000     -1.592200000000000
H       0.062400000000000      2.462200000000000     -1.902500000000000
H       1.726300000000000      3.376300000000000      1.849000000000000
H       2.107200000000000      3.032500000000000      0.172200000000000
H       2.140100000000000      1.103800000000000      2.531500000000000
H       3.494000000000000      1.635200000000000      1.558100000000000
H      -3.426800000000000     -0.328100000000000     -2.088200000000000
H      -4.337900000000000      1.152000000000000     -2.108100000000000
H      -2.176500000000000      3.409500000000000     -0.386800000000000
H      -3.838200000000000      3.024100000000000     -0.741500000000000
H      -3.106600000000000      2.423000000000000      0.754400000000000
H       2.894300000000000     -1.433800000000000     -0.519300000000000
H      -4.853500000000000      0.920800000000000      0.336100000000000
H      -3.931000000000000     -0.577800000000000      0.379600000000000
H       4.781900000000000      0.715800000000000     -0.073900000000000
H       4.770300000000000     -0.321700000000000      1.386800000000000
H      -6.381300000000000     -0.024500000000000     -1.354800000000000
H      -5.475700000000000     -1.540600000000000     -1.361300000000000
H       5.244400000000000     -1.248100000000000     -1.380100000000000
H      -8.474000000000000     -1.318500000000000     -0.796900000000000
H      -8.547499999999999     -2.318200000000000      0.642400000000000
H      -7.567000000000000     -2.846900000000000     -0.742500000000000
H      -5.414800000000000     -2.958800000000000      0.848200000000000
H      -6.583700000000000     -2.573800000000000      2.125500000000000
H      -5.156200000000000     -1.584600000000000      1.952600000000000
H      -7.733800000000000     -0.472800000000000      1.890400000000000
H       6.754300000000000     -1.956900000000000      1.804600000000000
H       8.238799999999999     -1.055500000000000      1.514600000000000
H       6.776000000000000     -0.180400000000000      1.900900000000000
H       7.464800000000000     -3.052500000000000     -0.536900000000000
H       8.760400000000001     -1.869700000000000     -0.758000000000000
H       7.489600000000000     -2.022100000000000     -1.977100000000000
H       6.788200000000000      1.220900000000000     -0.076300000000000
H       8.252900000000000      0.556900000000000     -0.756700000000000
H       6.782900000000000      0.544700000000000     -1.722600000000000
