71

O      -2.096800000000000      2.317800000000000      1.823700000000000
N      -3.919200000000000      0.834200000000000      0.056000000000000
C       0.261900000000000      0.729100000000000     -0.714800000000000
C      -0.167900000000000      1.376500000000000      0.647800000000000
C       1.797700000000000      0.650500000000000     -0.531000000000000
C       0.818400000000000      2.552100000000000      0.745800000000000
C      -1.669600000000000      1.737600000000000      0.589900000000000
C       2.141200000000000      1.993300000000000      0.168400000000000
C      -0.475400000000000     -0.608800000000000     -0.883500000000000
C      -2.521200000000000      0.468600000000000      0.315500000000000
C       2.636100000000000      0.407800000000000     -1.780400000000000
C      -2.004300000000000     -0.407700000000000     -0.850300000000000
C      -0.052100000000000      1.611200000000000     -1.965800000000000
C       0.089400000000000      0.487000000000000      1.909700000000000
C       4.149500000000000      0.353900000000000     -1.482800000000000
C       2.199100000000000     -0.898400000000000     -2.453300000000000
C       4.528900000000000     -0.716500000000000     -0.454500000000000
C      -4.805200000000000     -0.264200000000000      0.400200000000000
C       6.023300000000000     -0.728600000000000     -0.106700000000000
C      -6.256500000000000      0.111500000000000      0.094700000000000
C       6.483600000000000     -1.826800000000000      0.870900000000000
C      -7.246700000000000     -1.008400000000000      0.432000000000000
C       5.743100000000000     -1.674300000000000      2.202900000000000
C       7.992900000000000     -1.799000000000000      1.112900000000000
C      -7.000500000000000     -2.265500000000000     -0.349400000000000
C      -6.649700000000000     -3.432600000000000      0.202200000000000
H       1.988500000000000     -0.168100000000000      0.170700000000000
H       0.955400000000000      2.917800000000000      1.769300000000000
H       0.480300000000000      3.406200000000000      0.147600000000000
H      -1.861200000000000      2.493600000000000     -0.178800000000000
H       2.572200000000000      2.726500000000000     -0.522500000000000
H       2.872100000000000      1.827300000000000      0.967700000000000
H      -0.254900000000000     -1.098400000000000     -1.832600000000000
H      -0.181800000000000     -1.322700000000000     -0.106400000000000
H      -2.495200000000000     -0.129900000000000      1.235700000000000
H       2.500500000000000      1.222500000000000     -2.502100000000000
H      -2.322100000000000      0.026600000000000     -1.807200000000000
H      -2.467500000000000     -1.401100000000000     -0.810500000000000
H       0.512700000000000      2.548800000000000     -1.972100000000000
H      -1.106900000000000      1.885600000000000     -2.042200000000000
H       0.182600000000000      1.090900000000000     -2.898900000000000
H       1.147300000000000      0.252100000000000      2.061000000000000
H      -0.444800000000000     -0.465400000000000      1.880000000000000
H      -0.229700000000000      1.005900000000000      2.821300000000000
H       4.487100000000000      1.333100000000000     -1.122300000000000
H       4.699400000000000      0.171200000000000     -2.414800000000000
H       2.014000000000000     -1.702100000000000     -1.733500000000000
H       1.318900000000000     -0.758400000000000     -3.083200000000000
H       2.978400000000000     -1.255800000000000     -3.137600000000000
H      -4.168600000000000      1.647400000000000      0.619100000000000
H      -1.571600000000000      3.123600000000000      1.965400000000000
H       4.246700000000000     -1.709400000000000     -0.821500000000000
H       3.979700000000000     -0.542400000000000      0.473100000000000
H      -4.719100000000000     -0.510100000000000      1.465900000000000
H      -4.543100000000000     -1.158400000000000     -0.172500000000000
H       6.298900000000000      0.254200000000000      0.298400000000000
H       6.590900000000000     -0.842000000000000     -1.039700000000000
H      -6.354700000000000      0.374300000000000     -0.967000000000000
H      -6.535400000000000      1.005100000000000      0.667800000000000
H       6.227900000000000     -2.804800000000000      0.444300000000000
H      -8.263800000000000     -0.661300000000000      0.214000000000000
H      -7.211200000000000     -1.208800000000000      1.510100000000000
H       6.123200000000000     -2.390900000000000      2.939500000000000
H       4.672600000000000     -1.872400000000000      2.093800000000000
H       5.868600000000000     -0.668600000000000      2.618300000000000
H       8.536600000000000     -1.926200000000000      0.171000000000000
H       8.296200000000001     -2.607200000000000      1.786700000000000
H       8.305500000000000     -0.848600000000000      1.558400000000000
H      -7.121400000000000     -2.213400000000000     -1.428200000000000
H      -6.487600000000000     -4.306700000000000     -0.418900000000000
H      -6.516900000000000     -3.536700000000000      1.273300000000000
