71

O      -5.469500000000000     -2.263300000000000     -0.720900000000000
N      -3.289900000000000     -1.482200000000000     -0.295300000000000
C       3.264000000000000     -0.065500000000000     -0.317500000000000
C       4.808500000000000     -0.335000000000000     -0.242900000000000
C       2.360500000000000     -1.125400000000000      0.379400000000000
C       5.101100000000000     -1.815100000000000     -0.596600000000000
C       2.774000000000000     -2.552000000000000     -0.008700000000000
C       2.856000000000000      1.362700000000000      0.072900000000000
C       4.260200000000000     -2.812800000000000      0.192000000000000
C       5.435600000000000      0.003400000000000      1.124000000000000
C       5.541300000000000      0.538100000000000     -1.292100000000000
C       1.449000000000000      1.747400000000000     -0.398700000000000
C       2.213200000000000     -0.993600000000000      1.898900000000000
C       0.954700000000000      3.147800000000000      0.022100000000000
C      -0.509800000000000      3.390400000000000     -0.408500000000000
C       1.833200000000000      4.259100000000000     -0.564100000000000
C      -1.539600000000000      2.654900000000000      0.458100000000000
C      -2.965400000000000      2.920400000000000     -0.040000000000000
C      -4.077900000000000      2.166500000000000      0.718400000000000
C      -3.855000000000000      0.644000000000000      0.838500000000000
C      -3.459900000000000     -0.055000000000000     -0.460400000000000
C      -5.454300000000000      2.437000000000000      0.100000000000000
C      -1.989700000000000     -2.067900000000000     -0.069800000000000
C      -2.320600000000000     -3.473300000000000      0.390800000000000
C      -3.631300000000000     -3.791900000000000     -0.318500000000000
C      -4.288500000000000     -2.439000000000000     -0.461200000000000
H       3.017700000000000     -0.163200000000000     -1.387500000000000
H       1.344900000000000     -1.009800000000000     -0.021900000000000
H       6.163600000000000     -2.040400000000000     -0.438800000000000
H       4.911600000000000     -1.977700000000000     -1.666500000000000
H       2.190500000000000     -3.288400000000000      0.556900000000000
H       2.528300000000000     -2.715100000000000     -1.066500000000000
H       2.940900000000000      1.519600000000000      1.153100000000000
H       3.551500000000000      2.072100000000000     -0.383000000000000
H       4.495800000000000     -3.828100000000000     -0.148200000000000
H       4.515100000000000     -2.776400000000000      1.256300000000000
H       5.245400000000000      1.042300000000000      1.411500000000000
H       5.076400000000000     -0.638900000000000      1.927600000000000
H       6.524800000000000     -0.123100000000000      1.091400000000000
H       6.597200000000000      0.251800000000000     -1.369900000000000
H       5.521700000000000      1.601700000000000     -1.035700000000000
H       5.098400000000000      0.421500000000000     -2.287600000000000
H       0.735800000000000      1.016900000000000     -0.008900000000000
H       1.406500000000000      1.665300000000000     -1.492600000000000
H       1.801700000000000     -0.022600000000000      2.187200000000000
H       3.149500000000000     -1.145300000000000      2.434900000000000
H       1.509900000000000     -1.747700000000000      2.271800000000000
H       1.011900000000000      3.224300000000000      1.115700000000000
H      -0.732600000000000      4.463800000000000     -0.349900000000000
H      -0.634900000000000      3.103500000000000     -1.460300000000000
H       2.859200000000000      4.195600000000000     -0.189300000000000
H       1.452800000000000      5.247600000000000     -0.284400000000000
H       1.863400000000000      4.204300000000000     -1.657500000000000
H      -1.452600000000000      2.993200000000000      1.497600000000000
H      -1.320900000000000      1.585500000000000      0.455900000000000
H      -3.024300000000000      2.671400000000000     -1.107500000000000
H      -3.167600000000000      3.997600000000000      0.027400000000000
H      -4.106300000000000      2.564500000000000      1.742000000000000
H      -4.753800000000000      0.170400000000000      1.254600000000000
H      -3.067800000000000      0.463700000000000      1.582500000000000
H      -4.256500000000000      0.092000000000000     -1.198400000000000
H      -2.539100000000000      0.340600000000000     -0.896600000000000
H      -5.668200000000000      3.511200000000000      0.098400000000000
H      -6.247000000000000      1.942600000000000      0.671300000000000
H      -5.508000000000000      2.085300000000000     -0.935100000000000
H      -1.439700000000000     -2.066100000000000     -1.016500000000000
H      -1.435400000000000     -1.504200000000000      0.686100000000000
H      -2.483600000000000     -3.478600000000000      1.476000000000000
H      -1.527400000000000     -4.192000000000000      0.167100000000000
H      -4.255500000000000     -4.472000000000000      0.266000000000000
H      -3.456100000000000     -4.204800000000000     -1.316700000000000
