71

O      -2.149300000000000      0.462500000000000      1.729500000000000
N      -3.832000000000000      0.810200000000000     -0.493800000000000
C       0.414800000000000      1.031300000000000      0.135500000000000
C      -0.272900000000000     -0.368500000000000      0.356900000000000
C       1.907400000000000      0.610500000000000      0.114600000000000
C       0.545300000000000     -0.906600000000000      1.544100000000000
C      -1.804900000000000     -0.221900000000000      0.530500000000000
C       1.993400000000000     -0.438500000000000      1.255800000000000
C      -0.132600000000000      1.667600000000000     -1.152900000000000
C      -2.410100000000000      0.516200000000000     -0.696500000000000
C       2.951200000000000      1.712500000000000      0.253600000000000
C      -1.667900000000000      1.811600000000000     -1.095600000000000
C       0.211500000000000      2.065700000000000      1.287800000000000
C      -0.055800000000000     -1.391600000000000     -0.811700000000000
C       4.324400000000000      1.179600000000000      0.714200000000000
C       3.108500000000000      2.449700000000000     -1.081100000000000
C       4.902700000000000      0.107400000000000     -0.214800000000000
C      -4.622300000000000     -0.406700000000000     -0.573900000000000
C       6.236200000000000     -0.472400000000000      0.275300000000000
C      -6.107600000000000     -0.085500000000000     -0.396000000000000
C       6.906500000000000     -1.507200000000000     -0.648300000000000
C      -7.000700000000000     -1.328300000000000     -0.473800000000000
C       5.972900000000000     -2.705800000000000     -0.842500000000000
C       8.255200000000000     -1.985100000000000     -0.109600000000000
C      -8.455500000000001     -1.019800000000000     -0.274300000000000
C      -9.218200000000000     -1.587000000000000      0.667100000000000
H       2.104600000000000      0.087900000000000     -0.830300000000000
H       0.490800000000000     -1.996600000000000      1.641100000000000
H       0.209400000000000     -0.488600000000000      2.498900000000000
H      -2.244000000000000     -1.222500000000000      0.617400000000000
H       2.396300000000000     -0.028400000000000      2.187200000000000
H       2.608600000000000     -1.297700000000000      0.972500000000000
H       0.278300000000000      2.668300000000000     -1.310000000000000
H       0.150600000000000      1.084300000000000     -2.035400000000000
H      -2.325100000000000     -0.141400000000000     -1.571200000000000
H       2.672700000000000      2.446900000000000      1.014400000000000
H      -1.929200000000000      2.618700000000000     -0.399800000000000
H      -2.021200000000000      2.146600000000000     -2.079800000000000
H       0.643600000000000      1.739000000000000      2.238300000000000
H      -0.835400000000000      2.304100000000000      1.478400000000000
H       0.667700000000000      3.029300000000000      1.033000000000000
H       0.983900000000000     -1.717400000000000     -0.914900000000000
H      -0.364300000000000     -1.007400000000000     -1.786400000000000
H      -0.634500000000000     -2.304900000000000     -0.625500000000000
H       4.274900000000000      0.795500000000000      1.738300000000000
H       5.032200000000000      2.018200000000000      0.762100000000000
H       3.164400000000000      1.767700000000000     -1.935600000000000
H       2.283100000000000      3.143200000000000     -1.250200000000000
H       4.018000000000000      3.061400000000000     -1.084700000000000
H      -4.152200000000000      1.462700000000000     -1.209400000000000
H      -1.922900000000000     -0.116100000000000      2.476600000000000
H       5.067800000000000      0.537200000000000     -1.209800000000000
H       4.194400000000000     -0.710600000000000     -0.346000000000000
H      -4.340900000000000     -1.118100000000000      0.208800000000000
H      -4.480200000000000     -0.898400000000000     -1.544100000000000
H       6.081000000000000     -0.920700000000000      1.265700000000000
H       6.937800000000000      0.358800000000000      0.424700000000000
H      -6.423000000000000      0.632100000000000     -1.165200000000000
H      -6.259300000000000      0.406800000000000      0.574100000000000
H       7.079400000000000     -1.042800000000000     -1.627200000000000
H      -6.660800000000000     -2.064600000000000      0.265100000000000
H      -6.882400000000000     -1.795100000000000     -1.459300000000000
H       6.470800000000000     -3.492500000000000     -1.420200000000000
H       5.072000000000000     -2.429400000000000     -1.398300000000000
H       5.669000000000000     -3.136700000000000      0.117600000000000
H       8.940700000000000     -1.140600000000000      0.016700000000000
H       8.722500000000000     -2.695900000000000     -0.799200000000000
H       8.141999999999999     -2.477300000000000      0.862200000000000
H      -8.911400000000000     -0.302400000000000     -0.951600000000000
H     -10.267400000000000     -1.326500000000000      0.754100000000000
H      -8.814800000000000     -2.314600000000000      1.362500000000000
