71

O       6.338500000000000      0.286500000000000      0.039300000000000
N      -0.133500000000000      0.762200000000000      0.661300000000000
C      -3.949000000000000      0.301700000000000      0.930000000000000
C      -4.091900000000000     -0.472400000000000     -0.425700000000000
C      -5.559100000000000     -0.806600000000000     -0.869900000000000
C      -2.443000000000000      0.278900000000000      1.331300000000000
C      -4.759600000000000     -0.433200000000000      2.023900000000000
C      -3.207200000000000      0.156300000000000     -1.523800000000000
C      -1.533300000000000      0.885800000000000      0.252700000000000
C      -6.319300000000000     -1.452700000000000      0.317700000000000
C      -6.213700000000000     -0.681600000000000      1.629100000000000
C      -1.736000000000000      0.198700000000000     -1.099500000000000
C      -4.398700000000000      1.781700000000000      0.887500000000000
C      -6.346100000000000      0.400100000000000     -1.413000000000000
C      -5.535300000000000     -1.858900000000000     -2.009600000000000
C       0.744000000000000      1.376100000000000     -0.322000000000000
C       2.209000000000000      1.254600000000000      0.093400000000000
C       3.116000000000000      2.000600000000000     -0.895100000000000
C       2.619100000000000     -0.220200000000000      0.208500000000000
C       4.589800000000000      1.847800000000000     -0.531200000000000
C       4.094200000000000     -0.366700000000000      0.569300000000000
C       4.992400000000000      0.379200000000000     -0.414100000000000
C       6.767400000000000     -1.065100000000000      0.120600000000000
C       8.271000000000001     -1.087500000000000     -0.146200000000000
C       6.021500000000000     -1.876500000000000     -0.937700000000000
C       6.462800000000000     -1.588700000000000      1.523400000000000
H      -3.639700000000000     -1.460500000000000     -0.233600000000000
H      -2.134400000000000     -0.759400000000000      1.520100000000000
H      -2.301300000000000      0.813100000000000      2.280800000000000
H      -4.731900000000000      0.133700000000000      2.963100000000000
H      -4.292400000000000     -1.403600000000000      2.239100000000000
H      -3.266400000000000     -0.426200000000000     -2.448800000000000
H      -3.546800000000000      1.166400000000000     -1.773700000000000
H      -1.773200000000000      1.951700000000000      0.153700000000000
H      -7.379200000000000     -1.582300000000000      0.063900000000000
H      -5.924400000000000     -2.463500000000000      0.491000000000000
H      -6.703100000000000     -1.259900000000000      2.422300000000000
H      -6.765900000000000      0.260800000000000      1.559900000000000
H      -1.347100000000000     -0.827900000000000     -1.067700000000000
H      -1.212600000000000      0.720000000000000     -1.907400000000000
H      -4.042300000000000      2.315900000000000      1.777100000000000
H      -4.014600000000000      2.319400000000000      0.017300000000000
H      -5.482000000000000      1.901600000000000      0.890700000000000
H      -7.312400000000000      0.078200000000000     -1.820900000000000
H      -5.810000000000000      0.901400000000000     -2.224800000000000
H      -6.575000000000000      1.142400000000000     -0.649900000000000
H      -6.545800000000000     -2.224800000000000     -2.227800000000000
H      -4.924400000000000     -2.727300000000000     -1.738900000000000
H      -5.138300000000000     -1.444300000000000     -2.941700000000000
H       0.000500000000000      1.206200000000000      1.569400000000000
H       0.489900000000000      2.436700000000000     -0.442900000000000
H       0.667200000000000      0.899200000000000     -1.303200000000000
H       2.333600000000000      1.724500000000000      1.079600000000000
H       2.954300000000000      1.621400000000000     -1.912300000000000
H       2.857200000000000      3.066000000000000     -0.909400000000000
H       2.022400000000000     -0.724800000000000      0.977800000000000
H       2.425400000000000     -0.741400000000000     -0.738000000000000
H       5.216700000000000      2.346300000000000     -1.280600000000000
H       4.795900000000000      2.363900000000000      0.415600000000000
H       4.231800000000000      0.071700000000000      1.567900000000000
H       4.227900000000000     -1.432500000000000      0.708800000000000
H       4.875600000000000      0.009200000000000     -1.438900000000000
H       8.805500000000000     -0.469800000000000      0.585000000000000
H       8.497700000000000     -0.662800000000000     -1.131000000000000
H       8.677400000000000     -2.103400000000000     -0.106700000000000
H       6.228800000000000     -1.484400000000000     -1.943300000000000
H       6.449600000000000     -2.890000000000000     -0.943500000000000
H       4.951400000000000     -2.064700000000000     -0.882800000000000
H       7.367200000000000     -2.024600000000000      1.968800000000000
H       6.145400000000000     -0.806300000000000      2.219500000000000
H       5.746400000000000     -2.416300000000000      1.540200000000000
