71

N       1.167200000000000      1.338800000000000     -0.533600000000000
N       1.179300000000000     -1.298600000000000      0.588800000000000
C      -1.457200000000000     -0.003400000000000      0.001400000000000
C      -0.519900000000000      0.485300000000000      1.139600000000000
C      -0.488800000000000     -0.475100000000000     -1.117800000000000
C       0.362100000000000      1.667200000000000      0.650800000000000
C       0.392800000000000      0.705700000000000     -1.609900000000000
C       0.372800000000000     -0.679700000000000      1.649500000000000
C       0.403800000000000     -1.641400000000000     -0.610900000000000
C      -2.395100000000000     -1.141200000000000      0.472500000000000
C      -2.405400000000000      1.117900000000000     -0.488800000000000
C      -3.268800000000000     -1.619900000000000     -0.673500000000000
C      -3.254400000000000      1.636500000000000      0.658400000000000
C       1.898800000000000      2.504600000000000     -1.019500000000000
C       1.922400000000000     -2.451000000000000      1.089600000000000
C      -4.174300000000000     -2.761200000000000     -0.211100000000000
C      -4.170000000000000      2.761400000000000      0.176100000000000
C       3.173400000000000      2.709600000000000     -0.202600000000000
C       3.114300000000000     -2.749100000000000      0.181400000000000
C       3.966800000000000      3.914600000000000     -0.709300000000000
C       3.919700000000000     -3.941000000000000      0.700300000000000
C      -5.037400000000000     -3.283400000000000     -1.348400000000000
C      -5.008700000000000      3.323200000000000      1.313000000000000
C       5.219100000000000      4.146600000000000      0.121200000000000
C       5.087400000000000     -4.266400000000000     -0.217300000000000
H      -1.093900000000000      0.820100000000000      2.010000000000000
H      -1.041600000000000     -0.823700000000000     -1.996600000000000
H      -0.268200000000000      2.544700000000000      0.465500000000000
H       1.024200000000000      1.946800000000000      1.478900000000000
H      -0.227900000000000      1.445400000000000     -2.129400000000000
H       1.089600000000000      0.317400000000000     -2.364600000000000
H       1.046300000000000     -0.281000000000000      2.419500000000000
H      -0.247300000000000     -1.430800000000000      2.153400000000000
H      -0.211200000000000     -2.532600000000000     -0.440500000000000
H       1.080500000000000     -1.899500000000000     -1.433200000000000
H      -1.824400000000000     -2.004000000000000      0.829400000000000
H      -2.994700000000000     -0.862100000000000      1.343700000000000
H      -1.835900000000000      1.971800000000000     -0.869300000000000
H      -3.011400000000000      0.830500000000000     -1.351700000000000
H      -2.673500000000000     -1.986900000000000     -1.514000000000000
H      -3.939000000000000     -0.843400000000000     -1.047400000000000
H      -2.642100000000000      2.040600000000000      1.468900000000000
H      -3.905600000000000      0.867800000000000      1.080300000000000
H       1.274500000000000      3.407200000000000     -1.020400000000000
H       2.209300000000000      2.345500000000000     -2.061000000000000
H       2.320600000000000     -2.230700000000000      2.088900000000000
H       1.276200000000000     -3.331600000000000      1.196400000000000
H      -4.822400000000000     -2.418200000000000      0.604000000000000
H      -3.567400000000000     -3.585600000000000      0.181600000000000
H      -4.835600000000000      2.389700000000000     -0.611800000000000
H      -3.572300000000000      3.571200000000000     -0.258600000000000
H       2.933700000000000      2.869800000000000      0.854800000000000
H       3.799900000000000      1.810200000000000     -0.257500000000000
H       2.786600000000000     -2.983400000000000     -0.836900000000000
H       3.764600000000000     -1.867500000000000      0.117100000000000
H       3.341600000000000      4.814400000000000     -0.673100000000000
H       4.252500000000000      3.759300000000000     -1.756200000000000
H       3.271900000000000     -4.821700000000000      0.781500000000000
H       4.300500000000000     -3.724100000000000      1.705100000000000
H      -4.419500000000000     -3.666500000000000     -2.166900000000000
H      -5.683900000000000     -2.494300000000000     -1.745700000000000
H      -5.676100000000000     -4.099100000000000     -0.995300000000000
H      -4.373600000000000      3.735500000000000      2.103500000000000
H      -5.645200000000000      2.548300000000000      1.752000000000000
H      -5.656100000000000      4.125500000000000      0.945200000000000
H       5.881600000000000      3.276000000000000      0.083500000000000
H       5.771900000000000      5.010900000000000     -0.260200000000000
H       4.965500000000000      4.340800000000000      1.168200000000000
H       5.771200000000000     -3.415400000000000     -0.298700000000000
H       5.651100000000000     -5.118800000000000      0.174500000000000
H       4.737600000000000     -4.523900000000000     -1.222200000000000
