72

O      -2.123100000000000     -1.722600000000000      1.223900000000000
N      -3.816400000000000     -0.072600000000000     -0.126600000000000
C       0.315900000000000      0.564100000000000      0.256000000000000
C      -0.106400000000000     -0.934300000000000      0.162600000000000
C       1.855400000000000      0.428400000000000      0.197600000000000
C       0.799200000000000     -1.574100000000000      1.221300000000000
C       2.135500000000000     -0.805600000000000      1.095100000000000
C      -0.337700000000000      1.359000000000000     -0.887300000000000
C       2.669600000000000      1.650300000000000      0.603600000000000
C      -1.615700000000000     -0.990600000000000      0.376500000000000
C      -2.437000000000000     -0.142200000000000     -0.608700000000000
C      -1.875100000000000      1.279400000000000     -0.803200000000000
C      -0.093600000000000      1.230800000000000      1.610400000000000
C       0.174500000000000     -1.654900000000000     -1.182400000000000
C       4.119500000000000      1.298100000000000      0.998900000000000
C       2.683800000000000      2.669300000000000     -0.541700000000000
C      -4.545700000000000     -1.298800000000000     -0.476600000000000
C      -4.489700000000000      1.116900000000000     -0.665000000000000
C       4.891900000000000      0.573800000000000     -0.108300000000000
C      -5.975600000000000     -1.264800000000000      0.067100000000000
C      -5.917400000000000      1.233600000000000     -0.127100000000000
C      -6.732000000000000     -0.028400000000000     -0.430400000000000
C       6.311900000000000      0.163300000000000      0.303900000000000
C      -8.122100000000000      0.052500000000000      0.194400000000000
C       7.167400000000000     -0.509100000000000     -0.786600000000000
C       8.582700000000001     -0.829000000000000     -0.305200000000000
C       6.480100000000000     -1.792600000000000     -1.262200000000000
H       2.138800000000000      0.155900000000000     -0.827900000000000
H       0.943800000000000     -2.649500000000000      1.068300000000000
H       0.385700000000000     -1.457800000000000      2.230200000000000
H       2.460000000000000     -0.540300000000000      2.106100000000000
H       2.895900000000000     -1.459400000000000      0.657700000000000
H       0.001300000000000      1.001000000000000     -1.865200000000000
H      -0.069900000000000      2.417000000000000     -0.844500000000000
H       2.247500000000000      2.143900000000000      1.484400000000000
H      -2.401000000000000     -0.643400000000000     -1.584500000000000
H      -2.138100000000000      1.924000000000000      0.044700000000000
H      -2.271600000000000      1.742900000000000     -1.715400000000000
H       0.490800000000000      0.863200000000000      2.460000000000000
H      -1.143600000000000      1.057200000000000      1.865200000000000
H       0.042800000000000      2.317600000000000      1.569200000000000
H       1.243100000000000     -1.760500000000000     -1.394500000000000
H      -0.243400000000000     -2.669400000000000     -1.158200000000000
H      -0.277200000000000     -1.154700000000000     -2.042900000000000
H       4.654100000000000      2.224400000000000      1.249500000000000
H       4.143200000000000      0.703200000000000      1.917700000000000
H       2.826900000000000      2.202200000000000     -1.521400000000000
H       1.760300000000000      3.249900000000000     -0.566900000000000
H       3.487800000000000      3.401700000000000     -0.403900000000000
H      -4.062400000000000     -2.193600000000000     -0.072500000000000
H      -4.583000000000000     -1.428400000000000     -1.567000000000000
H      -4.520500000000000      1.094100000000000     -1.762700000000000
H      -4.039100000000000      2.062300000000000     -0.352900000000000
H       4.970100000000000      1.226600000000000     -0.985700000000000
H       4.352700000000000     -0.316100000000000     -0.433200000000000
H      -6.504000000000000     -2.174200000000000     -0.243300000000000
H      -5.947200000000000     -1.272600000000000      1.164800000000000
H      -5.886400000000000      1.408100000000000      0.956800000000000
H      -6.406000000000000      2.107400000000000     -0.575300000000000
H      -6.853100000000000     -0.110100000000000     -1.518800000000000
H       6.245800000000000     -0.504800000000000      1.172800000000000
H       6.841600000000000      1.060500000000000      0.650200000000000
H      -8.065500000000000      0.135800000000000      1.285000000000000
H      -8.708000000000000     -0.840600000000000     -0.046800000000000
H      -8.667000000000000      0.923800000000000     -0.183800000000000
H       7.247800000000000      0.175500000000000     -1.640300000000000
H       9.177099999999999     -1.278000000000000     -1.107800000000000
H       9.094200000000001      0.082600000000000      0.020800000000000
H       8.566100000000000     -1.527700000000000      0.538200000000000
H       7.118900000000000     -2.332300000000000     -1.970200000000000
H       5.542600000000000     -1.578600000000000     -1.784000000000000
H       6.264700000000000     -2.465600000000000     -0.425300000000000
