72

O      -7.775400000000000     -0.301900000000000      0.044800000000000
N       4.755100000000000     -0.042800000000000      0.568900000000000
C       0.139500000000000      0.928900000000000      0.412700000000000
C       0.971900000000000     -0.281300000000000     -0.063900000000000
C      -1.274600000000000      0.950900000000000     -0.178300000000000
C      -2.014300000000000     -0.357100000000000      0.254000000000000
C      -3.498600000000000     -0.392400000000000     -0.268600000000000
C       2.305600000000000      0.038600000000000      0.654600000000000
C      -4.208200000000000      0.898100000000000      0.255200000000000
C       0.268400000000000     -1.556400000000000      0.422200000000000
C      -1.187300000000000     -1.628300000000000     -0.074600000000000
C       1.063800000000000      2.118100000000000      0.170200000000000
C      -2.048900000000000      2.201100000000000      0.263100000000000
C       2.471700000000000      1.563500000000000      0.456100000000000
C      -3.503500000000000      2.180100000000000     -0.201400000000000
C      -4.256800000000000     -1.618200000000000      0.316500000000000
C       1.168700000000000     -0.349200000000000     -1.599400000000000
C      -5.705000000000000      0.933100000000000     -0.077500000000000
C       3.526800000000000     -0.752900000000000      0.209400000000000
C      -3.535600000000000     -0.488500000000000     -1.815500000000000
C      -5.760700000000000     -1.598100000000000      0.033900000000000
C      -6.419800000000000     -0.297300000000000      0.479900000000000
C       3.544600000000000     -2.142800000000000      0.841400000000000
C       5.872000000000000     -0.507400000000000     -0.238100000000000
C       7.149200000000000      0.239100000000000      0.143600000000000
C       8.341699999999999     -0.249800000000000     -0.679100000000000
C       9.609900000000000      0.513000000000000     -0.330100000000000
H       0.019700000000000      0.857900000000000      1.507100000000000
H      -1.201700000000000      0.990800000000000     -1.269400000000000
H      -2.074900000000000     -0.328800000000000      1.353800000000000
H       2.167900000000000     -0.115500000000000      1.736500000000000
H      -4.142400000000000      0.883900000000000      1.354600000000000
H       0.272100000000000     -1.601100000000000      1.518500000000000
H       0.776300000000000     -2.455100000000000      0.064000000000000
H      -1.185700000000000     -1.813000000000000     -1.153400000000000
H      -1.652300000000000     -2.505800000000000      0.388300000000000
H       0.828100000000000      2.961300000000000      0.827500000000000
H       0.995800000000000      2.474100000000000     -0.864000000000000
H      -1.565600000000000      3.102500000000000     -0.131400000000000
H      -2.024600000000000      2.284800000000000      1.357300000000000
H       2.895900000000000      2.028200000000000      1.353500000000000
H       3.125700000000000      1.812400000000000     -0.387700000000000
H      -4.017000000000000      3.055200000000000      0.215500000000000
H      -3.550800000000000      2.284400000000000     -1.291300000000000
H      -4.108500000000000     -1.653900000000000      1.403900000000000
H      -3.847800000000000     -2.552900000000000     -0.084500000000000
H       1.770500000000000      0.480300000000000     -1.983800000000000
H       0.222000000000000     -0.330100000000000     -2.145900000000000
H       1.664400000000000     -1.281700000000000     -1.891700000000000
H      -5.874200000000000      1.016300000000000     -1.157700000000000
H      -6.166600000000000      1.832000000000000      0.351700000000000
H       3.516000000000000     -0.867000000000000     -0.878200000000000
H      -4.552600000000000     -0.426400000000000     -2.212700000000000
H      -3.127100000000000     -1.443100000000000     -2.163200000000000
H      -2.964400000000000      0.305700000000000     -2.302200000000000
H      -5.952900000000000     -1.769300000000000     -1.032400000000000
H      -6.238600000000000     -2.442900000000000      0.546100000000000
H      -6.424000000000000     -0.244000000000000      1.575400000000000
H       2.733900000000000     -2.767200000000000      0.466800000000000
H       3.457300000000000     -2.091400000000000      1.932800000000000
H       4.457900000000000     -2.701000000000000      0.616000000000000
H       4.956800000000000     -0.160700000000000      1.561000000000000
H      -8.207000000000001     -1.081000000000000      0.435200000000000
H       5.668600000000000     -0.329000000000000     -1.301300000000000
H       6.053500000000000     -1.578800000000000     -0.109800000000000
H       7.361800000000000      0.095100000000000      1.210600000000000
H       7.010100000000000      1.316000000000000     -0.015300000000000
H       8.132800000000000     -0.126500000000000     -1.748200000000000
H       8.504300000000001     -1.319200000000000     -0.501300000000000
H       9.865500000000001      0.386200000000000      0.726700000000000
H      10.449500000000000      0.146600000000000     -0.929100000000000
H       9.491700000000000      1.582900000000000     -0.529500000000000
