72

N      -3.640700000000000     -0.425700000000000     -0.247400000000000
N       3.640400000000000     -0.425400000000000      0.246300000000000
C      -1.467300000000000     -1.569900000000000     -0.236900000000000
C       1.467100000000000     -1.569700000000000      0.235600000000000
C       0.729500000000000     -0.307400000000000     -0.228800000000000
C      -0.729300000000000     -0.306700000000000      0.224800000000000
C       0.729300000000000     -2.832500000000000     -0.226600000000000
C      -0.729400000000000     -2.832100000000000      0.227200000000000
C      -2.907400000000000     -1.569700000000000      0.271900000000000
C       2.907700000000000     -1.570200000000000     -0.271900000000000
C      -7.197900000000000      0.842500000000000      0.220000000000000
C       7.198200000000000      0.842000000000000     -0.219900000000000
C      -5.762000000000000      0.797400000000000     -0.298900000000000
C       5.761600000000000      0.797700000000000      0.297600000000000
C      -7.788700000000000      2.249600000000000      0.058200000000000
C      -8.066200000000000     -0.200300000000000     -0.496600000000000
C       7.788700000000000      2.249500000000000     -0.059900000000000
C       8.065700000000000     -0.199500000000000      0.499400000000000
C      -5.012300000000000     -0.416300000000000      0.244700000000000
C       5.012600000000000     -0.416900000000000     -0.244500000000000
C      -9.242699999999999      2.307200000000000      0.521300000000000
C      -9.519700000000000     -0.138600000000000     -0.032800000000000
C       9.243100000000000      2.306400000000000     -0.521700000000000
C       9.519700000000000     -0.138500000000000      0.036900000000000
C     -10.100700000000000      1.263500000000000     -0.186900000000000
C      10.100500000000000      1.263900000000000      0.189100000000000
H      -1.482800000000000     -1.577000000000000     -1.336200000000000
H       1.481800000000000     -1.574700000000000      1.335000000000000
H       1.212000000000000      0.594000000000000      0.166600000000000
H       0.765700000000000     -0.233300000000000     -1.323500000000000
H       0.766400000000000     -2.908300000000000     -1.320900000000000
H       1.229000000000000     -3.724200000000000      0.170100000000000
H      -1.211700000000000      0.593800000000000     -0.172500000000000
H      -0.765400000000000     -0.230300000000000      1.319200000000000
H      -0.766400000000000     -2.906300000000000      1.321600000000000
H      -1.229200000000000     -3.724400000000000     -0.168200000000000
H      -3.399200000000000     -2.499300000000000     -0.041300000000000
H      -2.908500000000000     -1.551700000000000      1.369200000000000
H       3.399100000000000     -2.499400000000000      0.043300000000000
H       2.909600000000000     -1.554000000000000     -1.369200000000000
H      -7.194800000000000      0.611100000000000      1.294300000000000
H       7.196100000000000      0.608800000000000     -1.293800000000000
H      -5.751200000000000      0.797700000000000     -1.396400000000000
H      -5.230100000000000      1.703900000000000      0.019800000000000
H       5.749800000000000      0.800000000000000      1.395200000000000
H       5.230000000000000      1.703600000000000     -0.023200000000000
H      -7.731700000000000      2.558900000000000     -0.993300000000000
H      -7.200000000000000      2.973100000000000      0.634700000000000
H      -8.029100000000000     -0.037500000000000     -1.581500000000000
H      -7.691000000000000     -1.212800000000000     -0.314700000000000
H       7.200500000000000      2.971900000000000     -0.638300000000000
H       7.730700000000000      2.560600000000000      0.991100000000000
H       8.027600000000000     -0.034800000000000      1.583900000000000
H       7.690800000000000     -1.212300000000000      0.318700000000000
H      -5.513600000000000     -1.340500000000000     -0.061200000000000
H      -5.013500000000000     -0.379600000000000      1.340900000000000
H       5.513600000000000     -1.340600000000000      0.063600000000000
H       5.014900000000000     -0.382200000000000     -1.340700000000000
H      -3.638800000000000     -0.446100000000000     -1.266800000000000
H       3.637500000000000     -0.444200000000000      1.265700000000000
H      -9.287200000000000      2.142400000000000      1.604900000000000
H      -9.649500000000000      3.307300000000000      0.333700000000000
H     -10.120799999999999     -0.851300000000000     -0.608700000000000
H      -9.580500000000001     -0.445700000000000      1.018600000000000
H       9.288700000000000      2.139700000000000     -1.605000000000000
H       9.649800000000001      3.306800000000000     -0.335400000000000
H      10.120300000000000     -0.850200000000000      0.614600000000000
H       9.581600000000000     -0.447300000000000     -1.013900000000000
H     -11.119100000000000      1.287400000000000      0.217000000000000
H     -10.173200000000000      1.513200000000000     -1.252600000000000
H      11.119300000000001      1.287100000000000     -0.213700000000000
H      10.172000000000001      1.515400000000000      1.254500000000000
