72

N      -3.579500000000000      0.504300000000000      0.690700000000000
N       3.590900000000000      0.532000000000000     -0.689600000000000
C      -1.423700000000000      1.653600000000000      0.418300000000000
C       1.430300000000000      1.666400000000000     -0.411200000000000
C       0.760900000000000      0.400800000000000      0.139400000000000
C      -0.742500000000000      0.393800000000000     -0.131400000000000
C       0.749400000000000      2.925900000000000      0.139200000000000
C      -0.754000000000000      2.919100000000000     -0.132000000000000
C      -2.915500000000000      1.646900000000000      0.090300000000000
C       2.922400000000000      1.673400000000000     -0.084500000000000
C      -5.015400000000000      0.519800000000000      0.372900000000000
C       5.026300000000000      0.530100000000000     -0.368600000000000
C      -5.775000000000000     -0.232100000000000      1.476800000000000
C      -5.182400000000000     -0.023200000000000     -1.052300000000000
C       5.780400000000000     -0.221400000000000     -1.476500000000000
C       5.184300000000000     -0.025300000000000      1.052800000000000
C      -5.655400000000000     -1.758700000000000      1.438600000000000
C      -6.599300000000000      0.008100000000000     -1.623200000000000
C       5.644900000000000     -1.746900000000000     -1.450100000000000
C       6.600200000000000     -0.013000000000000      1.627000000000000
C      -6.893400000000000     -2.475900000000000      0.895100000000000
C      -7.659300000000000     -0.884700000000000     -0.977000000000000
C       6.874000000000000     -2.480900000000000     -0.909300000000000
C       7.652300000000000     -0.912000000000000      0.976500000000000
C      -7.196400000000000     -2.290400000000000     -0.593700000000000
C       7.175600000000000     -2.309900000000000      0.581700000000000
H      -1.304000000000000      1.660300000000000      1.511300000000000
H       1.309500000000000      1.672000000000000     -1.504100000000000
H       1.195300000000000     -0.498200000000000     -0.313000000000000
H       0.931900000000000      0.326400000000000      1.221200000000000
H       0.919700000000000      3.001900000000000      1.220900000000000
H       1.192600000000000      3.820000000000000     -0.315200000000000
H      -0.912800000000000      0.317100000000000     -1.213200000000000
H      -1.169100000000000     -0.508700000000000      0.321700000000000
H      -1.205300000000000      3.809200000000000      0.322400000000000
H      -0.924900000000000      2.993700000000000     -1.213600000000000
H      -3.024600000000000      1.661900000000000     -0.998700000000000
H      -3.358800000000000      2.576100000000000      0.471400000000000
H       3.035700000000000      1.686600000000000      1.004100000000000
H       3.361500000000000      2.604000000000000     -0.466700000000000
H      -5.385500000000000      1.553800000000000      0.405800000000000
H       5.404400000000000      1.561400000000000     -0.392700000000000
H      -3.442300000000000      0.541700000000000      1.700400000000000
H       3.456300000000000      0.575200000000000     -1.699500000000000
H      -6.825900000000000      0.074300000000000      1.483400000000000
H      -5.401800000000000      0.112700000000000      2.452200000000000
H      -4.768900000000000     -1.035000000000000     -1.133300000000000
H      -4.584900000000000      0.574500000000000     -1.750600000000000
H       6.834400000000000      0.074100000000000     -1.478400000000000
H       5.413100000000000      0.134600000000000     -2.450000000000000
H       4.759900000000000     -1.033300000000000      1.125600000000000
H       4.590800000000000      0.574100000000000      1.753100000000000
H      -5.522600000000000     -2.103200000000000      2.473000000000000
H      -4.758000000000000     -2.086600000000000      0.903200000000000
H      -6.525600000000000     -0.284200000000000     -2.679700000000000
H      -6.967100000000000      1.041800000000000     -1.628400000000000
H       5.510800000000000     -2.082300000000000     -2.487300000000000
H       4.742900000000000     -2.069400000000000     -0.919000000000000
H       6.521000000000000     -0.312300000000000      2.681100000000000
H       6.978700000000000      1.016800000000000      1.640500000000000
H      -7.771900000000000     -2.187100000000000      1.485900000000000
H      -6.754500000000000     -3.550500000000000      1.071500000000000
H      -8.470700000000001     -0.985800000000000     -1.711100000000000
H      -8.123500000000000     -0.377200000000000     -0.125700000000000
H       7.756800000000000     -2.196700000000000     -1.496000000000000
H       6.724400000000000     -3.552700000000000     -1.094100000000000
H       8.460900000000001     -1.027100000000000      1.711600000000000
H       8.123699999999999     -0.403000000000000      0.130000000000000
H      -8.018300000000000     -2.979600000000000     -0.830500000000000
H      -6.351700000000000     -2.621000000000000     -1.207500000000000
H       7.989700000000000     -3.009300000000000      0.815000000000000
H       6.326100000000000     -2.636100000000000      1.191100000000000
