72

N       2.092700000000000      1.740600000000000      0.010600000000000
N       7.160100000000000     -2.551600000000000     -0.054300000000000
C       3.994300000000000      0.381200000000000     -0.845800000000000
C       4.860800000000000     -1.694000000000000      0.593800000000000
C       3.939900000000000     -0.447700000000000      0.454000000000000
C       5.446300000000000      0.565600000000000     -1.336100000000000
C       6.286500000000000     -1.373500000000000      0.024200000000000
C       6.252300000000000     -0.725900000000000     -1.365000000000000
C       3.418900000000000      1.817400000000000     -0.607600000000000
C       3.141500000000000     -0.288900000000000     -1.950700000000000
C       3.103800000000000     -0.040600000000000      1.434600000000000
C       5.027900000000000     -2.131500000000000      2.079400000000000
C       4.208500000000000     -2.896300000000000     -0.129600000000000
C       2.203500000000000      1.161800000000000      1.352700000000000
C       1.451200000000000      3.052200000000000      0.060600000000000
C       0.047900000000000      2.979700000000000      0.665200000000000
C      -0.904900000000000      2.083200000000000     -0.131700000000000
C      -2.272700000000000      1.985200000000000      0.549200000000000
C      -3.233700000000000      1.112600000000000     -0.261200000000000
C      -4.629600000000000      1.005600000000000      0.359600000000000
C      -5.569000000000000      0.073800000000000     -0.411000000000000
C      -6.922700000000000     -0.049300000000000      0.293700000000000
C      -7.913700000000000     -0.953700000000000     -0.445000000000000
C      -9.290400000000000     -1.018400000000000      0.219800000000000
C     -10.259200000000000     -1.874900000000000     -0.596900000000000
C     -11.640300000000000     -1.912800000000000      0.037600000000000
H       5.972100000000000      1.275500000000000     -0.682600000000000
H       5.452200000000000      1.014400000000000     -2.337800000000000
H       6.771300000000000     -0.665000000000000      0.710200000000000
H       7.273600000000000     -0.484200000000000     -1.688400000000000
H       5.850900000000000     -1.413000000000000     -2.118200000000000
H       3.354600000000000      2.339100000000000     -1.572100000000000
H       4.098300000000000      2.409800000000000      0.022500000000000
H       3.599300000000000     -1.196300000000000     -2.348000000000000
H       3.010000000000000      0.385100000000000     -2.805700000000000
H       2.142800000000000     -0.557200000000000     -1.587200000000000
H       3.037600000000000     -0.578500000000000      2.374300000000000
H       5.738600000000000     -2.960300000000000      2.177100000000000
H       5.403900000000000     -1.308000000000000      2.697500000000000
H       4.084600000000000     -2.486200000000000      2.510300000000000
H       4.687200000000000     -3.841600000000000      0.152900000000000
H       3.147600000000000     -2.987500000000000      0.132400000000000
H       4.277500000000000     -2.828100000000000     -1.216600000000000
H       1.217300000000000      0.824000000000000      1.690300000000000
H       2.572500000000000      1.899400000000000      2.077500000000000
H       2.054200000000000      3.765000000000000      0.638200000000000
H       1.366200000000000      3.457600000000000     -0.955700000000000
H       8.084099999999999     -2.271500000000000     -0.381900000000000
H       6.803200000000000     -3.203400000000000     -0.751900000000000
H       0.078600000000000      2.672500000000000      1.716600000000000
H      -0.364900000000000      3.997400000000000      0.674100000000000
H      -1.022100000000000      2.486000000000000     -1.145100000000000
H      -0.489400000000000      1.074100000000000     -0.232400000000000
H      -2.699700000000000      2.988800000000000      0.663900000000000
H      -2.156200000000000      1.565200000000000      1.555500000000000
H      -3.326500000000000      1.517800000000000     -1.276500000000000
H      -2.807300000000000      0.106500000000000     -0.360000000000000
H      -4.531200000000000      0.643300000000000      1.390600000000000
H      -5.075400000000000      2.006200000000000      0.417200000000000
H      -5.713200000000000      0.457800000000000     -1.427800000000000
H      -5.112800000000000     -0.919200000000000     -0.500400000000000
H      -7.363100000000000      0.949900000000000      0.400200000000000
H      -6.771900000000000     -0.438400000000000      1.308300000000000
H      -8.028200000000000     -0.587300000000000     -1.472900000000000
H      -7.494900000000000     -1.965200000000000     -0.514700000000000
H      -9.694500000000000     -0.003900000000000      0.321600000000000
H      -9.191000000000001     -1.430100000000000      1.231200000000000
H     -10.344099999999999     -1.475400000000000     -1.614200000000000
H      -9.871900000000000     -2.897000000000000     -0.680800000000000
H     -12.315799999999999     -2.531500000000000     -0.561300000000000
H     -11.596700000000000     -2.335600000000000      1.046400000000000
H     -12.069300000000000     -0.907900000000000      0.104100000000000
