72

N       4.114300000000000     -4.299700000000000      0.331300000000000
N      -6.317700000000000     -2.139100000000000     -0.704700000000000
C       2.063200000000000      1.079800000000000     -0.187700000000000
C      -0.487000000000000      0.857000000000000     -0.115900000000000
C       0.759000000000000      1.406800000000000      0.588900000000000
C       2.652600000000000     -0.252500000000000      0.314200000000000
C      -1.739600000000000      1.060400000000000      0.734600000000000
C       1.804900000000000      0.964000000000000     -1.712200000000000
C      -0.658400000000000      1.505200000000000     -1.500600000000000
C       3.094900000000000      2.190100000000000      0.088700000000000
C      -2.942200000000000      0.423700000000000      0.040300000000000
C       0.667500000000000      1.867700000000000     -2.173900000000000
C       3.973500000000000     -0.564200000000000     -0.401800000000000
C       1.645700000000000     -1.395100000000000      0.126500000000000
C      -4.214400000000000      0.615400000000000      0.876600000000000
C      -2.685400000000000     -1.064400000000000     -0.231800000000000
C      -1.543500000000000      0.404500000000000      2.111200000000000
C      -2.000200000000000      2.564100000000000      0.922100000000000
C       4.553200000000000     -1.907000000000000      0.042400000000000
C       2.226100000000000     -2.737700000000000      0.570200000000000
C       3.543400000000000     -3.042800000000000     -0.151600000000000
C       2.592200000000000      3.519000000000000     -0.457500000000000
C       3.376700000000000      2.282500000000000      1.581900000000000
C      -5.423500000000000     -0.057400000000000      0.227100000000000
C      -3.894800000000000     -1.736900000000000     -0.880500000000000
C      -5.160500000000000     -1.543400000000000     -0.037800000000000
H      -0.348200000000000     -0.196300000000000     -0.301800000000000
H       0.860800000000000      0.978700000000000      1.590500000000000
H       0.641200000000000      2.472300000000000      0.754000000000000
H       2.849800000000000     -0.215400000000000      1.391900000000000
H       1.562900000000000     -0.041900000000000     -2.057300000000000
H       2.707900000000000      1.237700000000000     -2.273700000000000
H      -1.183900000000000      0.798200000000000     -2.156000000000000
H      -1.269200000000000      2.410200000000000     -1.502000000000000
H       4.043700000000000      2.015800000000000     -0.427600000000000
H      -3.129400000000000      0.913600000000000     -0.924600000000000
H       0.547200000000000      1.752700000000000     -3.259200000000000
H       0.849100000000000      2.930800000000000     -2.035200000000000
H       4.745300000000000      0.178500000000000     -0.185100000000000
H       3.848200000000000     -0.597300000000000     -1.489500000000000
H       1.288700000000000     -1.531000000000000     -0.894900000000000
H       0.791900000000000     -1.259500000000000      0.793300000000000
H      -4.137000000000000      0.182800000000000      1.876200000000000
H      -4.458700000000000      1.675500000000000      0.996600000000000
H      -1.859200000000000     -1.227800000000000     -0.927700000000000
H      -2.456200000000000     -1.613600000000000      0.686900000000000
H      -1.165500000000000     -0.620000000000000      2.047700000000000
H      -2.433500000000000      0.395900000000000      2.741700000000000
H      -0.823700000000000      0.967900000000000      2.716600000000000
H      -2.723400000000000      2.729900000000000      1.730800000000000
H      -1.127400000000000      3.141400000000000      1.230200000000000
H      -2.428500000000000      3.045400000000000      0.037800000000000
H       5.467300000000000     -2.111600000000000     -0.529100000000000
H       4.848200000000000     -1.839500000000000      1.098200000000000
H       2.390100000000000     -2.719200000000000      1.656200000000000
H       1.494200000000000     -3.532000000000000      0.376400000000000
H       3.338500000000000     -3.152600000000000     -1.224200000000000
H       1.591500000000000      3.836600000000000     -0.167500000000000
H       3.253000000000000      4.319300000000000     -0.096000000000000
H       2.700400000000000      3.568100000000000     -1.545400000000000
H       2.485700000000000      2.445300000000000      2.193900000000000
H       4.034500000000000      3.139400000000000      1.776000000000000
H       3.919900000000000      1.417400000000000      1.970500000000000
H      -6.296900000000000      0.062400000000000      0.880400000000000
H      -5.658600000000000      0.460200000000000     -0.712600000000000
H      -4.041600000000000     -1.318700000000000     -1.885400000000000
H      -3.689500000000000     -2.806900000000000     -1.010100000000000
H      -5.024700000000000     -2.057100000000000      0.922100000000000
H       3.461000000000000     -5.062200000000000      0.157000000000000
H       4.959300000000000     -4.517800000000000     -0.195300000000000
H      -7.157100000000000     -1.970000000000000     -0.151700000000000
H      -6.474000000000000     -1.680200000000000     -1.601600000000000
