72

N       2.385900000000000     -4.398500000000000     -1.970500000000000
N       4.453400000000000      3.270900000000000     -0.779200000000000
C      -0.693400000000000     -0.608300000000000      1.098500000000000
C      -0.580200000000000      0.927400000000000      0.797800000000000
C       0.414100000000000     -1.426300000000000      0.436700000000000
C      -2.055000000000000     -1.174000000000000      0.598800000000000
C       0.855700000000000      1.457400000000000      0.732400000000000
C      -1.338900000000000      1.292100000000000     -0.487100000000000
C      -0.586300000000000     -0.824700000000000      2.624000000000000
C      -2.851200000000000      1.045000000000000     -0.336800000000000
C      -3.166000000000000     -0.128900000000000      0.605600000000000
C       0.343600000000000     -2.893200000000000      0.881700000000000
C       0.331100000000000     -1.313700000000000     -1.091400000000000
C       1.662800000000000      0.704500000000000     -0.333500000000000
C       0.863800000000000      2.967400000000000      0.459400000000000
C      -3.492000000000000      0.848700000000000     -1.711800000000000
C       1.410500000000000     -3.744000000000000      0.193500000000000
C       1.398500000000000     -2.164800000000000     -1.778800000000000
C       1.319200000000000     -3.628200000000000     -1.332200000000000
C      -1.743400000000000     -0.133800000000000      3.329500000000000
C       0.753100000000000     -0.310400000000000      3.129100000000000
C       3.085700000000000      1.249500000000000     -0.454100000000000
C       2.287100000000000      3.511700000000000      0.339000000000000
C       3.085000000000000      2.757400000000000     -0.729600000000000
C      -3.136600000000000      2.008300000000000     -2.639100000000000
C      -5.006700000000000      0.708600000000000     -1.582000000000000
H      -1.064700000000000      1.524700000000000      1.571000000000000
H       1.376300000000000     -1.227900000000000      0.885600000000000
H      -2.061400000000000     -1.592100000000000     -0.404400000000000
H      -2.373900000000000     -2.007700000000000      1.239000000000000
H       1.399300000000000      1.360800000000000      1.664900000000000
H      -1.274800000000000      2.363800000000000     -0.685200000000000
H      -0.982300000000000      0.825000000000000     -1.392100000000000
H      -0.689200000000000     -1.875600000000000      2.907100000000000
H      -3.293900000000000      1.943300000000000      0.119000000000000
H      -3.357800000000000      0.293700000000000      1.589900000000000
H      -4.101900000000000     -0.636800000000000      0.364700000000000
H      -0.633100000000000     -3.339100000000000      0.664500000000000
H       0.530100000000000     -3.024300000000000      1.951100000000000
H       0.263400000000000     -0.403300000000000     -1.647400000000000
H      -0.581200000000000     -1.813700000000000     -1.432400000000000
H       1.281900000000000      0.965800000000000     -1.323600000000000
H       2.048300000000000     -0.277400000000000     -0.224200000000000
H       0.335200000000000      3.502500000000000      1.256900000000000
H       0.385900000000000      3.230700000000000     -0.486800000000000
H      -3.110700000000000     -0.071700000000000     -2.173200000000000
H       2.404400000000000     -3.426800000000000      0.536600000000000
H       1.290700000000000     -4.791000000000000      0.499200000000000
H       2.405000000000000     -1.770600000000000     -1.597700000000000
H       1.245700000000000     -2.112100000000000     -2.865500000000000
H       0.358900000000000     -4.047600000000000     -1.658800000000000
H      -1.895200000000000      0.927300000000000      3.140100000000000
H      -1.558200000000000     -0.186900000000000      4.412300000000000
H      -2.681600000000000     -0.682400000000000      3.206800000000000
H       1.661500000000000     -0.571800000000000      2.592300000000000
H       0.722200000000000      0.759000000000000      3.361400000000000
H       0.910400000000000     -0.765200000000000      4.119100000000000
H       3.639400000000000      1.040200000000000      0.472500000000000
H       3.618800000000000      0.734900000000000     -1.265900000000000
H       2.244400000000000      4.580900000000000      0.096100000000000
H       2.785000000000000      3.429600000000000      1.314400000000000
H       2.626200000000000      2.937700000000000     -1.709700000000000
H      -2.075300000000000      2.028500000000000     -2.903000000000000
H      -3.684700000000000      1.925200000000000     -3.584700000000000
H      -3.399500000000000      2.973000000000000     -2.191100000000000
H      -5.309200000000000     -0.269700000000000     -1.199900000000000
H      -5.486100000000000      0.803200000000000     -2.563300000000000
H      -5.431700000000000      1.484100000000000     -0.935600000000000
H       2.279800000000000     -4.358400000000000     -2.983300000000000
H       2.302500000000000     -5.380400000000000     -1.710400000000000
H       4.436300000000000      4.279700000000000     -0.924800000000000
H       4.910700000000000      3.123900000000000      0.120000000000000
