72

N      -5.908100000000000     -3.269100000000000      0.096800000000000
N       6.678300000000000     -2.378500000000000     -0.733000000000000
C      -1.996200000000000      0.979600000000000     -0.146900000000000
C       0.844900000000000      0.302700000000000      0.775700000000000
C      -3.106900000000000     -0.047000000000000     -0.440500000000000
C       2.181100000000000      1.005300000000000      0.528800000000000
C      -0.800000000000000      0.757300000000000     -1.109300000000000
C      -1.565000000000000      0.836300000000000      1.335700000000000
C       0.229500000000000     -0.214600000000000     -0.537600000000000
C      -0.107100000000000      1.233400000000000      1.547200000000000
C      -2.571900000000000      2.387400000000000     -0.393300000000000
C       3.166500000000000      0.029500000000000     -0.111800000000000
C      -4.298700000000000      0.159500000000000      0.503900000000000
C      -2.564200000000000     -1.478100000000000     -0.331400000000000
C       3.406500000000000     -1.177700000000000      0.804600000000000
C       4.488000000000000      0.734700000000000     -0.444800000000000
C       1.971700000000000      2.203500000000000     -0.412300000000000
C       2.759400000000000      1.505300000000000      1.863300000000000
C      -5.393900000000000     -0.879900000000000      0.266300000000000
C      -3.659800000000000     -2.517200000000000     -0.568300000000000
C      -4.845000000000000     -2.305700000000000      0.380500000000000
C      -1.515600000000000      3.443000000000000     -0.098900000000000
C      -3.078200000000000      2.502300000000000     -1.824200000000000
C       4.428600000000000     -2.144900000000000      0.208000000000000
C       5.510100000000000     -0.233000000000000     -1.040600000000000
C       5.746000000000000     -1.434200000000000     -0.118200000000000
H       0.982500000000000     -0.562500000000000      1.433600000000000
H      -3.466300000000000      0.042300000000000     -1.471900000000000
H      -0.306300000000000      1.667600000000000     -1.428900000000000
H      -1.164100000000000      0.329200000000000     -2.053800000000000
H      -1.679300000000000     -0.172200000000000      1.738600000000000
H      -2.191000000000000      1.466700000000000      1.981000000000000
H       0.947300000000000     -0.413500000000000     -1.332600000000000
H      -0.165000000000000     -1.203900000000000     -0.318300000000000
H       0.100800000000000      1.109000000000000      2.620200000000000
H       0.073700000000000      2.284900000000000      1.378700000000000
H      -3.402900000000000      2.615400000000000      0.282100000000000
H       2.809800000000000     -0.350500000000000     -1.072500000000000
H      -4.768700000000000      1.136100000000000      0.362000000000000
H      -4.002300000000000      0.092700000000000      1.556100000000000
H      -2.101000000000000     -1.713000000000000      0.628300000000000
H      -1.849500000000000     -1.674400000000000     -1.134400000000000
H       2.495400000000000     -1.760600000000000      0.962500000000000
H       3.782900000000000     -0.878600000000000      1.787800000000000
H       4.962000000000000      1.184200000000000      0.430800000000000
H       4.345100000000000      1.529200000000000     -1.183800000000000
H       1.768600000000000      1.905100000000000     -1.444500000000000
H       2.876700000000000      2.822700000000000     -0.453400000000000
H       1.221100000000000      2.909300000000000     -0.073900000000000
H       3.765100000000000      1.922600000000000      1.792700000000000
H       2.159600000000000      2.331000000000000      2.265700000000000
H       2.762700000000000      0.734700000000000      2.640600000000000
H      -6.200900000000000     -0.725700000000000      0.993600000000000
H      -5.830000000000000     -0.721000000000000     -0.729100000000000
H      -3.999300000000000     -2.453200000000000     -1.611100000000000
H      -3.241800000000000     -3.522800000000000     -0.434600000000000
H      -4.503500000000000     -2.470100000000000      1.410600000000000
H      -0.620600000000000      3.413800000000000     -0.710200000000000
H      -1.953700000000000      4.422300000000000     -0.344400000000000
H      -1.296800000000000      3.543400000000000      0.964200000000000
H      -2.343400000000000      2.214400000000000     -2.580600000000000
H      -3.340300000000000      3.546200000000000     -2.038300000000000
H      -4.000700000000000      1.940400000000000     -1.994400000000000
H       4.605600000000000     -2.963900000000000      0.916600000000000
H       4.006200000000000     -2.597300000000000     -0.699300000000000
H       5.152500000000000     -0.573600000000000     -2.021600000000000
H       6.454000000000000      0.297900000000000     -1.216100000000000
H       6.197400000000000     -1.076200000000000      0.815500000000000
H      -5.554000000000000     -4.216700000000000      0.220900000000000
H      -6.664900000000000     -3.153400000000000      0.769500000000000
H       6.796200000000000     -3.188800000000000     -0.125800000000000
H       6.286100000000000     -2.734000000000000     -1.604200000000000
