72

N      -0.387000000000000      1.013700000000000     -0.483600000000000
N       0.316400000000000      0.730400000000000      0.502500000000000
C      -1.819600000000000      0.952200000000000     -0.151200000000000
C       1.749000000000000      0.792600000000000      0.170600000000000
C      -2.420200000000000      2.352500000000000     -0.358200000000000
C      -2.461300000000000     -0.102700000000000     -1.064600000000000
C       2.234700000000000      2.231500000000000      0.410700000000000
C       2.474400000000000     -0.227900000000000      1.060300000000000
C      -3.577700000000000      2.723200000000000      0.588100000000000
C      -2.154000000000000     -1.532500000000000     -0.604500000000000
C       3.357900000000000      2.716200000000000     -0.525300000000000
C       2.283200000000000     -1.667000000000000      0.566900000000000
C      -4.891000000000000      1.955600000000000      0.384300000000000
C      -2.972100000000000     -2.618500000000000     -1.323100000000000
C       4.729000000000000      2.052700000000000     -0.337400000000000
C       3.186900000000000     -2.699600000000000      1.261300000000000
C      -5.052200000000000      0.779200000000000      1.355700000000000
C      -4.485500000000000     -2.373200000000000     -1.431200000000000
C       4.984300000000000      0.915900000000000     -1.335600000000000
C       4.675500000000000     -2.335400000000000      1.377200000000000
C      -6.291100000000000     -0.088200000000000      1.077700000000000
C      -5.175500000000000     -2.079000000000000     -0.091300000000000
C       6.289300000000000      0.145100000000000     -1.076100000000000
C       5.338800000000000     -1.955600000000000      0.045300000000000
C      -6.203200000000000     -0.940600000000000     -0.195900000000000
C       6.271300000000000     -0.740700000000000      0.177400000000000
H      -1.959200000000000      0.666300000000000      0.900100000000000
H       1.898700000000000      0.531600000000000     -0.885500000000000
H      -2.737500000000000      2.483000000000000     -1.400500000000000
H      -1.634700000000000      3.102600000000000     -0.191100000000000
H      -2.119900000000000      0.025100000000000     -2.099800000000000
H      -3.538500000000000      0.052500000000000     -1.074900000000000
H       2.545500000000000      2.359000000000000      1.455500000000000
H       1.396800000000000      2.927500000000000      0.267600000000000
H       2.124500000000000     -0.152100000000000      2.097800000000000
H       3.535600000000000      0.013100000000000      1.075000000000000
H      -3.792500000000000      3.785900000000000      0.412700000000000
H      -3.245100000000000      2.652200000000000      1.630700000000000
H      -2.318900000000000     -1.616600000000000      0.475700000000000
H      -1.088700000000000     -1.744300000000000     -0.758800000000000
H       3.486600000000000      3.788400000000000     -0.325000000000000
H       3.031300000000000      2.642600000000000     -1.569500000000000
H       2.454400000000000     -1.712500000000000     -0.514700000000000
H       1.238000000000000     -1.966400000000000      0.713700000000000
H      -4.988000000000000      1.647400000000000     -0.660100000000000
H      -5.722900000000000      2.647600000000000      0.570400000000000
H      -2.801100000000000     -3.573600000000000     -0.811200000000000
H      -2.575400000000000     -2.739600000000000     -2.339000000000000
H       4.851200000000000      1.729300000000000      0.699600000000000
H       5.502100000000000      2.813800000000000     -0.506500000000000
H       3.093400000000000     -3.653300000000000      0.727200000000000
H       2.801800000000000     -2.875900000000000      2.273600000000000
H      -5.147500000000000      1.186900000000000      2.370500000000000
H      -4.152800000000000      0.160600000000000      1.366500000000000
H      -4.949900000000000     -3.261100000000000     -1.878600000000000
H      -4.653300000000000     -1.565300000000000     -2.152500000000000
H       5.045800000000000      1.353300000000000     -2.340600000000000
H       4.137400000000000      0.227400000000000     -1.361700000000000
H       5.210400000000000     -3.192900000000000      1.804700000000000
H       4.777800000000000     -1.533400000000000      2.117000000000000
H      -7.172100000000000      0.561500000000000      1.009100000000000
H      -6.457800000000000     -0.750700000000000      1.936000000000000
H      -4.444100000000000     -1.865700000000000      0.689400000000000
H      -5.690700000000000     -2.987000000000000      0.248100000000000
H       7.115100000000000      0.862100000000000     -0.991300000000000
H       6.508500000000000     -0.481800000000000     -1.949300000000000
H       4.592100000000000     -1.784000000000000     -0.731200000000000
H       5.925300000000000     -2.810900000000000     -0.314300000000000
H      -7.188000000000000     -1.383900000000000     -0.390200000000000
H      -5.994800000000000     -0.288600000000000     -1.049400000000000
H       7.288700000000000     -1.107400000000000      0.362700000000000
H       6.011500000000000     -0.127500000000000      1.045500000000000
