72

N      -3.031900000000000      0.222900000000000      0.111100000000000
N       3.046900000000000     -0.267700000000000     -0.037300000000000
C      -3.461100000000000     -1.190900000000000     -0.046600000000000
C      -4.077100000000000      1.274300000000000      0.102500000000000
C       4.085000000000000     -1.328800000000000      0.101500000000000
C       3.460500000000000      1.153900000000000      0.139000000000000
C      -5.950900000000000     -0.535300000000000      0.185100000000000
C       5.910700000000000      0.454700000000000     -0.181900000000000
C      -4.901900000000000     -1.325300000000000     -0.594900000000000
C      -5.389200000000000      0.768600000000000      0.756400000000000
C       5.417800000000000     -0.929700000000000     -0.585500000000000
C       4.818900000000000      1.452800000000000     -0.548600000000000
C      -1.770400000000000      0.586700000000000     -0.525800000000000
C       1.772600000000000     -0.598200000000000      0.611600000000000
C      -3.364000000000000     -1.832800000000000      1.356300000000000
C      -2.569300000000000     -2.048800000000000     -0.984600000000000
C      -4.357800000000000      1.833700000000000     -1.309600000000000
C      -3.610500000000000      2.465200000000000      0.983400000000000
C       3.608900000000000     -2.605400000000000     -0.647100000000000
C       4.373300000000000     -1.750600000000000      1.560900000000000
C       2.432100000000000      2.073600000000000     -0.577200000000000
C       3.524400000000000      1.620300000000000      1.611900000000000
C      -7.196200000000000     -0.296100000000000     -0.671000000000000
C       7.219200000000000      0.794500000000000     -0.895200000000000
C      -0.593500000000000      0.164300000000000      0.300300000000000
C       0.603300000000000     -0.156000000000000     -0.214700000000000
H      -6.275900000000000     -1.149700000000000      1.036100000000000
H       6.103900000000000      0.488700000000000      0.895700000000000
H      -5.204600000000000     -2.382000000000000     -0.600300000000000
H      -4.914600000000000     -1.025000000000000     -1.650200000000000
H      -5.202000000000000      0.604100000000000      1.827500000000000
H      -6.154800000000000      1.555900000000000      0.728800000000000
H       6.194300000000000     -1.672800000000000     -0.358500000000000
H       5.287700000000000     -0.954500000000000     -1.677400000000000
H       4.684200000000000      1.443000000000000     -1.640400000000000
H       5.154700000000000      2.468100000000000     -0.297900000000000
H      -1.665300000000000      1.674800000000000     -0.591800000000000
H      -1.705400000000000      0.255900000000000     -1.567600000000000
H       1.639000000000000     -1.680600000000000      0.697400000000000
H       1.709800000000000     -0.237300000000000      1.642400000000000
H      -3.717800000000000     -2.870600000000000      1.337300000000000
H      -3.961400000000000     -1.303000000000000      2.104600000000000
H      -2.330100000000000     -1.849800000000000      1.719800000000000
H      -2.563900000000000     -1.664000000000000     -2.010200000000000
H      -2.955700000000000     -3.074700000000000     -1.043100000000000
H      -1.538900000000000     -2.141300000000000     -0.631700000000000
H      -3.500300000000000      2.382900000000000     -1.713700000000000
H      -4.605900000000000      1.053700000000000     -2.032600000000000
H      -5.199700000000000      2.535900000000000     -1.287800000000000
H      -3.314200000000000      2.125000000000000      1.983000000000000
H      -4.419600000000000      3.194400000000000      1.113600000000000
H      -2.765800000000000      3.013400000000000      0.555300000000000
H       4.428200000000000     -3.328700000000000     -0.745000000000000
H       3.268800000000000     -2.364700000000000     -1.661500000000000
H       2.797600000000000     -3.131700000000000     -0.135400000000000
H       3.469300000000000     -2.076900000000000      2.085400000000000
H       5.072000000000000     -2.596100000000000      1.586800000000000
H       4.830000000000000     -0.954100000000000      2.149800000000000
H       1.498800000000000      2.189600000000000     -0.019700000000000
H       2.214400000000000      1.728600000000000     -1.594600000000000
H       2.835600000000000      3.090300000000000     -0.676000000000000
H       2.545300000000000      1.616600000000000      2.100800000000000
H       4.206800000000000      1.023900000000000      2.217900000000000
H       3.882900000000000      2.656000000000000      1.668700000000000
H      -7.982300000000000      0.191200000000000     -0.084300000000000
H      -7.598000000000000     -1.244500000000000     -1.043100000000000
H      -6.975900000000000      0.340200000000000     -1.534100000000000
H       8.001400000000000      0.074700000000000     -0.632400000000000
H       7.569800000000000      1.791100000000000     -0.606700000000000
H       7.098700000000000      0.780600000000000     -1.983900000000000
H      -0.707500000000000      0.177700000000000      1.382300000000000
H       0.710100000000000     -0.183400000000000     -1.297300000000000
