73

O      -3.717600000000000      1.666000000000000      0.423300000000000
O      -2.749700000000000      2.735400000000000     -1.381300000000000
C       2.719400000000000      0.052900000000000      0.291900000000000
C       1.386700000000000      0.584600000000000     -0.231700000000000
C       3.032500000000000     -1.319300000000000     -0.318100000000000
C       3.850200000000000      1.048200000000000      0.003100000000000
C       5.516600000000000     -0.854800000000000     -0.138100000000000
C       1.093700000000000      1.975700000000000      0.346000000000000
C       0.248600000000000     -0.392500000000000      0.092800000000000
C       4.385900000000000     -1.850400000000000      0.150900000000000
C       5.203500000000000      0.517000000000000      0.472400000000000
C      -0.258700000000000      2.508200000000000     -0.122800000000000
C      -1.103000000000000      0.140700000000000     -0.377500000000000
C      -1.388800000000000      1.528800000000000      0.195200000000000
C       6.850000000000000     -1.386200000000000      0.384200000000000
C       8.026199999999999     -0.665500000000000     -0.268200000000000
C      -2.673200000000000      2.056900000000000     -0.365900000000000
C       9.357600000000000     -1.177800000000000      0.280500000000000
C      -5.006900000000000      2.102800000000000      0.002400000000000
C      10.535399999999999     -0.442400000000000     -0.338700000000000
C      -6.052100000000000      1.067500000000000      0.428400000000000
C      -5.292600000000000      3.462900000000000      0.625200000000000
C      -5.775700000000000     -0.314600000000000     -0.176100000000000
C      -6.815600000000000     -1.338100000000000      0.286800000000000
C      -6.570600000000000     -2.746100000000000     -0.263100000000000
C      -7.565600000000000     -3.783900000000000      0.257700000000000
C      -7.236200000000000     -5.176000000000000     -0.259600000000000
H       2.649600000000000     -0.069800000000000      1.382300000000000
H       1.447300000000000      0.681100000000000     -1.325300000000000
H       2.287100000000000     -2.065900000000000     -0.028700000000000
H       3.025100000000000     -1.258200000000000     -1.413700000000000
H       3.897200000000000      1.270000000000000     -1.070500000000000
H       3.693800000000000      1.995700000000000      0.527400000000000
H       5.582200000000000     -0.741900000000000     -1.229200000000000
H       1.840400000000000      2.708800000000000      0.026500000000000
H       1.112800000000000      1.943600000000000      1.442700000000000
H       0.208800000000000     -0.583300000000000      1.172600000000000
H       0.393800000000000     -1.356600000000000     -0.403300000000000
H       4.589700000000000     -2.804600000000000     -0.349800000000000
H       4.339900000000000     -2.059900000000000      1.227400000000000
H       5.202300000000000      0.448300000000000      1.568000000000000
H       5.971200000000000      1.249500000000000      0.202000000000000
H      -0.456100000000000      3.477400000000000      0.352100000000000
H      -0.205900000000000      2.698200000000000     -1.203100000000000
H      -1.120300000000000      0.175300000000000     -1.474900000000000
H      -1.894900000000000     -0.558000000000000     -0.080300000000000
H      -1.483200000000000      1.467200000000000      1.287700000000000
H       6.934500000000000     -2.456800000000000      0.157700000000000
H       6.900500000000000     -1.291200000000000      1.476000000000000
H       7.966600000000000      0.412800000000000     -0.087700000000000
H       7.996700000000000     -0.813100000000000     -1.354700000000000
H       9.387499999999999     -1.048200000000000      1.368700000000000
H       9.456000000000000     -2.250600000000000      0.078500000000000
H      -5.052300000000000      2.190400000000000     -1.090900000000000
H      11.477100000000000     -0.826300000000000      0.065900000000000
H      10.485700000000000      0.629900000000000     -0.124000000000000
H      10.553200000000000     -0.575100000000000     -1.425200000000000
H      -6.045100000000000      0.974600000000000      1.522100000000000
H      -7.052600000000000      1.406400000000000      0.133900000000000
H      -5.232100000000000      3.413200000000000      1.718100000000000
H      -6.286000000000000      3.826700000000000      0.345700000000000
H      -4.551500000000000      4.202200000000000      0.303300000000000
H      -4.777900000000000     -0.661600000000000      0.116800000000000
H      -5.787300000000000     -0.247600000000000     -1.270500000000000
H      -6.814600000000000     -1.379400000000000      1.383300000000000
H      -7.815600000000000     -1.004100000000000     -0.016200000000000
H      -5.553400000000000     -3.058700000000000      0.004400000000000
H      -6.614100000000000     -2.717300000000000     -1.358900000000000
H      -7.550800000000000     -3.795700000000000      1.353600000000000
H      -8.581200000000001     -3.511000000000000     -0.050800000000000
H      -7.268300000000000     -5.205600000000000     -1.353400000000000
H      -6.238500000000000     -5.489300000000000      0.064000000000000
H      -7.960400000000000     -5.902700000000000      0.121500000000000
