73

O       1.580000000000000     -2.128600000000000      1.921000000000000
N       0.831000000000000     -2.683900000000000     -0.192800000000000
C       2.464500000000000      3.463300000000000      0.391200000000000
C       1.552900000000000      3.119200000000000     -0.807900000000000
C       3.138000000000000      2.205000000000000      0.978100000000000
C      -1.650300000000000      0.904000000000000     -1.494000000000000
C       0.409900000000000      2.129400000000000     -0.542400000000000
C      -0.489800000000000      1.890700000000000     -1.759600000000000
C       4.073200000000000      1.493200000000000     -0.005800000000000
C       3.836400000000000     -0.838400000000000      1.150100000000000
C       4.765200000000000      0.261800000000000      0.594100000000000
C      -2.775700000000000      1.551500000000000     -0.659300000000000
C       2.893000000000000     -1.395200000000000      0.074100000000000
C      -3.895000000000000      0.577800000000000     -0.266300000000000
C       3.497500000000000      4.504900000000000     -0.058600000000000
C      -0.353900000000000     -3.404500000000000      0.249200000000000
C       0.928600000000000     -2.679900000000000     -1.649100000000000
C      -1.181000000000000     -3.587800000000000     -1.013900000000000
C      -0.119400000000000     -3.686500000000000     -2.102300000000000
C       1.712600000000000     -2.097000000000000      0.696600000000000
C      -2.170600000000000      0.379000000000000     -2.838000000000000
C      -4.938700000000000      1.269700000000000      0.619300000000000
C       4.699400000000000     -1.957000000000000      1.752000000000000
C      -6.082200000000000      0.366400000000000      1.120000000000000
C      -7.150900000000000      1.148200000000000      1.883700000000000
C      -5.574700000000000     -0.805500000000000      1.960500000000000
H       1.847700000000000      3.911800000000000      1.180300000000000
H       1.101300000000000      4.056100000000000     -1.162600000000000
H       2.152700000000000      2.751600000000000     -1.649300000000000
H       2.363600000000000      1.521900000000000      1.339400000000000
H       3.717200000000000      2.499900000000000      1.862700000000000
H      -1.251500000000000      0.045300000000000     -0.938000000000000
H       0.820200000000000      1.164900000000000     -0.226600000000000
H      -0.186300000000000      2.510000000000000      0.294000000000000
H       0.143900000000000      1.498700000000000     -2.565700000000000
H      -0.892200000000000      2.846800000000000     -2.116800000000000
H       4.866600000000000      2.179800000000000     -0.322600000000000
H       3.541900000000000      1.205600000000000     -0.916700000000000
H       3.259800000000000     -0.401000000000000      1.973600000000000
H       5.415800000000000     -0.171300000000000     -0.177000000000000
H       5.430700000000000      0.602200000000000      1.398500000000000
H      -2.349700000000000      1.971500000000000      0.258900000000000
H      -3.206900000000000      2.392600000000000     -1.217100000000000
H       3.437800000000000     -2.088600000000000     -0.575400000000000
H       2.483800000000000     -0.596900000000000     -0.549800000000000
H      -4.396600000000000      0.185400000000000     -1.156700000000000
H      -3.447400000000000     -0.270200000000000      0.262300000000000
H       4.057900000000000      4.180900000000000     -0.941100000000000
H       2.999000000000000      5.445800000000000     -0.316700000000000
H       4.210100000000000      4.718100000000000      0.744900000000000
H      -0.880000000000000     -2.848100000000000      1.030500000000000
H      -0.025300000000000     -4.366000000000000      0.658800000000000
H       0.692300000000000     -1.668700000000000     -1.997700000000000
H       1.933500000000000     -2.949100000000000     -1.983500000000000
H      -1.831700000000000     -4.465100000000000     -0.968800000000000
H      -1.806200000000000     -2.703200000000000     -1.185600000000000
H       0.308300000000000     -4.696200000000000     -2.111400000000000
H      -0.508200000000000     -3.468700000000000     -3.100700000000000
H      -2.638100000000000      1.179200000000000     -3.421500000000000
H      -1.354500000000000     -0.043600000000000     -3.434300000000000
H      -2.905500000000000     -0.419300000000000     -2.698700000000000
H      -4.434500000000000      1.712500000000000      1.488400000000000
H      -5.372800000000000      2.106100000000000      0.056300000000000
H       4.086500000000000     -2.745300000000000      2.199200000000000
H       5.336800000000000     -2.419000000000000      0.990000000000000
H       5.350400000000000     -1.561400000000000      2.539200000000000
H      -6.574200000000000     -0.059800000000000      0.235200000000000
H      -6.736300000000000      1.595500000000000      2.793300000000000
H      -7.557900000000000      1.954700000000000      1.264700000000000
H      -7.982300000000000      0.496600000000000      2.172900000000000
H      -4.988200000000000     -0.453000000000000      2.815500000000000
H      -6.411500000000000     -1.397500000000000      2.347100000000000
H      -4.949700000000000     -1.482700000000000      1.371000000000000
