73

O      -8.309400000000000      0.930200000000000     -0.326700000000000
O      -7.002400000000000      1.554200000000000      1.423000000000000
C       5.471700000000000      1.296100000000000     -0.234300000000000
C       5.411500000000000      2.560100000000000      0.627600000000000
C       6.148900000000000      0.148000000000000      0.516700000000000
C       4.768800000000000      3.759000000000000     -0.079000000000000
C       6.270100000000000     -1.132200000000000     -0.314600000000000
C       3.364100000000000      3.527500000000000     -0.645400000000000
C       4.949700000000000     -1.759500000000000     -0.776100000000000
C       2.355800000000000      3.038600000000000      0.395500000000000
C       4.016300000000000     -2.140900000000000      0.376000000000000
C       0.982400000000000      2.793300000000000     -0.234200000000000
C       2.814500000000000     -2.947800000000000     -0.126600000000000
C       0.019800000000000      2.179000000000000      0.782800000000000
C       1.906700000000000     -3.380700000000000      1.028500000000000
C      -1.387700000000000      1.925700000000000      0.234400000000000
C       0.843600000000000     -4.400800000000000      0.607300000000000
C      -1.410600000000000      0.950500000000000     -0.946400000000000
C      -0.215200000000000     -3.884600000000000     -0.370900000000000
C      -2.823200000000000      0.527000000000000     -1.370900000000000
C      -1.192400000000000     -2.894100000000000      0.268500000000000
C      -3.569800000000000     -0.298200000000000     -0.346000000000000
C      -2.277000000000000     -2.472400000000000     -0.728000000000000
C      -3.310800000000000     -1.593600000000000     -0.080300000000000
C      -4.690700000000000      0.412600000000000      0.366500000000000
C      -6.001600000000000      0.313900000000000     -0.392200000000000
C      -7.133100000000000      0.989300000000000      0.344500000000000
H       4.458500000000000      0.994300000000000     -0.515400000000000
H       6.019600000000000      1.507500000000000     -1.160100000000000
H       6.429300000000000      2.843700000000000      0.923700000000000
H       4.872400000000000      2.347700000000000      1.558400000000000
H       5.608800000000000     -0.059800000000000      1.447600000000000
H       7.158900000000000      0.460500000000000      0.810600000000000
H       5.422500000000000      4.077300000000000     -0.900700000000000
H       4.733100000000000      4.597200000000000      0.627900000000000
H       6.824200000000000     -1.873800000000000      0.274500000000000
H       6.883200000000000     -0.924200000000000     -1.200400000000000
H       3.416900000000000      2.814000000000000     -1.476200000000000
H       3.006300000000000      4.470700000000000     -1.077100000000000
H       5.193100000000000     -2.660100000000000     -1.354000000000000
H       4.430200000000000     -1.085500000000000     -1.466700000000000
H       2.268900000000000      3.776400000000000      1.202000000000000
H       2.704300000000000      2.103800000000000      0.847900000000000
H       3.657300000000000     -1.239000000000000      0.884700000000000
H       4.571200000000000     -2.733600000000000      1.113300000000000
H       1.101400000000000      2.119500000000000     -1.089800000000000
H       0.573100000000000      3.736800000000000     -0.614000000000000
H       3.173700000000000     -3.835400000000000     -0.661400000000000
H       2.246900000000000     -2.343300000000000     -0.843100000000000
H      -0.062600000000000      2.846400000000000      1.649700000000000
H       0.433600000000000      1.232900000000000      1.153900000000000
H       2.522300000000000     -3.845900000000000      1.808900000000000
H       1.438900000000000     -2.501900000000000      1.485800000000000
H      -1.844000000000000      2.876300000000000     -0.066900000000000
H      -1.992300000000000      1.530100000000000      1.058100000000000
H       0.344400000000000     -4.780000000000000      1.507600000000000
H       1.346700000000000     -5.262700000000000      0.151100000000000
H      -0.808300000000000      0.067800000000000     -0.705800000000000
H      -0.934600000000000      1.424500000000000     -1.813100000000000
H      -0.784700000000000     -4.749000000000000     -0.735700000000000
H       0.258400000000000     -3.434500000000000     -1.249900000000000
H      -2.755400000000000     -0.043700000000000     -2.306000000000000
H      -3.403600000000000      1.421500000000000     -1.630700000000000
H      -0.653800000000000     -2.007100000000000      0.620600000000000
H      -1.656300000000000     -3.358200000000000      1.148100000000000
H      -2.789100000000000     -3.362400000000000     -1.114200000000000
H      -1.811600000000000     -1.988600000000000     -1.592400000000000
H      -3.921900000000000     -2.094000000000000      0.670000000000000
H      -4.817300000000000     -0.011900000000000      1.372000000000000
H      -4.423500000000000      1.463400000000000      0.535300000000000
H      -6.279500000000000     -0.736500000000000     -0.537400000000000
H      -5.908200000000000      0.791500000000000     -1.374300000000000
H      -9.031300000000000      1.383800000000000      0.158500000000000
