73

O       6.709300000000000     -1.975300000000000      0.102100000000000
N       1.005000000000000      1.273000000000000     -0.168700000000000
C       2.773800000000000     -0.461800000000000     -0.531800000000000
C       3.832300000000000      0.502100000000000      0.085200000000000
C       5.056700000000000     -0.259700000000000      0.660000000000000
C       3.455300000000000     -1.297900000000000     -1.639200000000000
C       1.640700000000000      0.393000000000000     -1.162000000000000
C       3.158100000000000      1.468100000000000      1.074400000000000
C       5.691800000000000     -1.138100000000000     -0.444100000000000
C       4.680700000000000     -2.053300000000000     -1.134500000000000
C       1.978300000000000      2.199100000000000      0.421400000000000
C       2.146200000000000     -1.418900000000000      0.514800000000000
C      -0.106100000000000      2.009900000000000     -0.769800000000000
C       6.106100000000000      0.694100000000000      1.250900000000000
C      -1.145700000000000      2.397600000000000      0.298100000000000
C       0.435800000000000      3.210600000000000     -1.541700000000000
C      -1.677300000000000      1.231100000000000      1.141000000000000
C      -2.421900000000000      0.174800000000000      0.311500000000000
C      -3.042400000000000     -0.997000000000000      1.100600000000000
C      -3.854700000000000     -1.938100000000000      0.181600000000000
C      -1.974300000000000     -1.821300000000000      1.830000000000000
C      -5.015200000000000     -1.301700000000000     -0.595400000000000
C      -6.048100000000000     -0.612500000000000      0.301900000000000
C      -7.218800000000000      0.013800000000000     -0.480500000000000
C      -8.000000000000000     -1.018700000000000     -1.294400000000000
C      -8.165600000000000      0.727400000000000      0.488400000000000
H       4.217200000000000      1.129100000000000     -0.735100000000000
H       4.739400000000000     -0.909200000000000      1.485300000000000
H       2.743300000000000     -2.011700000000000     -2.071700000000000
H       3.767500000000000     -0.639000000000000     -2.460300000000000
H       2.048700000000000      0.967900000000000     -2.002800000000000
H       0.888200000000000     -0.287800000000000     -1.582300000000000
H       2.821100000000000      0.930900000000000      1.968800000000000
H       3.871800000000000      2.225800000000000      1.416100000000000
H       6.165000000000000     -0.490500000000000     -1.193100000000000
H       4.382600000000000     -2.861700000000000     -0.455700000000000
H       5.166700000000000     -2.560300000000000     -1.978000000000000
H       1.508500000000000      2.818900000000000      1.193500000000000
H       2.436400000000000      2.869600000000000     -0.314800000000000
H       1.604900000000000     -0.883500000000000      1.300900000000000
H       1.426400000000000     -2.092500000000000      0.034600000000000
H       2.889300000000000     -2.046900000000000      1.013000000000000
H      -0.625600000000000      1.370000000000000     -1.494500000000000
H       6.999400000000000      0.148000000000000      1.571700000000000
H       5.720000000000000      1.212700000000000      2.133500000000000
H       6.415800000000000      1.445200000000000      0.516600000000000
H      -0.726800000000000      3.148700000000000      0.979300000000000
H      -1.992700000000000      2.888400000000000     -0.199200000000000
H       7.112600000000000     -2.467400000000000     -0.633300000000000
H       0.755400000000000      4.035400000000000     -0.894900000000000
H      -0.376700000000000      3.625100000000000     -2.152800000000000
H       1.236100000000000      2.963500000000000     -2.245800000000000
H      -0.851800000000000      0.770800000000000      1.693500000000000
H      -2.366300000000000      1.635000000000000      1.893100000000000
H      -3.210900000000000      0.698700000000000     -0.239500000000000
H      -1.744000000000000     -0.246000000000000     -0.440500000000000
H      -3.710700000000000     -0.586600000000000      1.866700000000000
H      -3.176500000000000     -2.406400000000000     -0.543900000000000
H      -4.262800000000000     -2.756300000000000      0.789600000000000
H      -1.458000000000000     -1.222800000000000      2.586400000000000
H      -2.426100000000000     -2.674600000000000      2.347400000000000
H      -1.225000000000000     -2.207000000000000      1.130500000000000
H      -5.496500000000000     -2.106000000000000     -1.163100000000000
H      -4.631700000000000     -0.592300000000000     -1.336900000000000
H      -6.435100000000000     -1.337500000000000      1.029300000000000
H      -5.560900000000000      0.183900000000000      0.876100000000000
H      -6.816500000000000      0.763700000000000     -1.173300000000000
H      -8.339800000000000     -1.847300000000000     -0.664000000000000
H      -7.393600000000000     -1.430800000000000     -2.106300000000000
H      -8.882600000000000     -0.562100000000000     -1.755700000000000
H      -8.608000000000001      0.024500000000000      1.202600000000000
H      -8.980900000000000      1.218000000000000     -0.053900000000000
H      -7.633300000000000      1.498100000000000      1.056000000000000
