73

O     -11.682100000000000      1.423500000000000      0.218900000000000
O     -10.149200000000000      2.333900000000000     -1.186400000000000
C       1.108800000000000     -0.856600000000000     -0.329700000000000
C      -0.287600000000000     -0.938400000000000      0.284000000000000
C       1.889900000000000     -2.151300000000000     -0.072300000000000
C       1.870800000000000      0.357200000000000      0.217400000000000
C      -1.034400000000000     -2.174500000000000     -0.232700000000000
C      -1.083300000000000      0.340400000000000     -0.007900000000000
C       4.070800000000000     -0.862300000000000     -0.085200000000000
C      -3.248900000000000     -0.973800000000000      0.035200000000000
C       3.308900000000000     -2.075700000000000     -0.632900000000000
C       3.290000000000000      0.432600000000000     -0.343000000000000
C      -2.453400000000000     -2.252100000000000      0.327700000000000
C      -2.502400000000000      0.262600000000000      0.552200000000000
C       5.467700000000000     -0.781100000000000     -0.697700000000000
C      -4.645900000000000     -1.055700000000000      0.647700000000000
C       6.414100000000000      0.044500000000000      0.173800000000000
C      -5.656300000000000     -0.128900000000000     -0.025700000000000
C       7.821300000000000      0.095400000000000     -0.425900000000000
C      -7.051400000000000     -0.190000000000000      0.601400000000000
C       8.756500000000001      0.954000000000000      0.428500000000000
C      -8.029800000000000      0.730600000000000     -0.136700000000000
C      10.161400000000000      1.098700000000000     -0.163400000000000
C      -9.443899999999999      0.663500000000000      0.440800000000000
C      11.073300000000000      2.016200000000000      0.652100000000000
C     -10.423000000000000      1.570900000000000     -0.270600000000000
C      12.458100000000000      2.116300000000000      0.030600000000000
H       1.012300000000000     -0.732800000000000     -1.417900000000000
H      -0.191500000000000     -1.035100000000000      1.374900000000000
H       1.933000000000000     -2.362200000000000      1.003700000000000
H       1.414200000000000     -3.009800000000000     -0.555900000000000
H       1.377500000000000      1.295200000000000     -0.054300000000000
H       1.913700000000000      0.316200000000000      1.313100000000000
H      -1.074800000000000     -2.164000000000000     -1.329200000000000
H      -0.534700000000000     -3.100100000000000      0.068200000000000
H      -0.614600000000000      1.216700000000000      0.449400000000000
H      -1.128100000000000      0.521000000000000     -1.089300000000000
H       4.164700000000000     -1.000100000000000      1.000900000000000
H      -3.345300000000000     -0.890100000000000     -1.056100000000000
H       3.843400000000000     -2.999500000000000     -0.380200000000000
H       3.264000000000000     -2.023900000000000     -1.728500000000000
H       3.239500000000000      0.631800000000000     -1.421300000000000
H       3.799500000000000      1.288100000000000      0.113600000000000
H      -2.406800000000000     -2.422300000000000      1.411100000000000
H      -2.963400000000000     -3.119500000000000     -0.108500000000000
H      -3.038800000000000      1.177500000000000      0.277100000000000
H      -2.454100000000000      0.240600000000000      1.648600000000000
H       5.887100000000000     -1.791200000000000     -0.790000000000000
H       5.423500000000000     -0.367000000000000     -1.712500000000000
H      -4.604500000000000     -0.844900000000000      1.723600000000000
H      -5.025600000000000     -2.081400000000000      0.551700000000000
H       6.034800000000000      1.066800000000000      0.279900000000000
H       6.464500000000000     -0.387900000000000      1.180500000000000
H      -5.297900000000000      0.905900000000000      0.020500000000000
H      -5.728300000000000     -0.390300000000000     -1.089000000000000
H       8.228300000000001     -0.919400000000000     -0.508600000000000
H       7.772300000000000      0.508800000000000     -1.440600000000000
H      -6.994800000000000      0.101700000000000      1.656800000000000
H      -7.422700000000000     -1.221200000000000      0.568500000000000
H       8.318600000000000      1.953100000000000      0.547200000000000
H       8.831899999999999      0.520700000000000      1.433400000000000
H      -7.665200000000000      1.764500000000000     -0.090500000000000
H      -8.060200000000000      0.458600000000000     -1.199400000000000
H      10.619400000000001      0.104800000000000     -0.241200000000000
H      10.080600000000000      1.490100000000000     -1.185200000000000
H      -9.423999999999999      0.954100000000000      1.497100000000000
H      -9.819100000000001     -0.363400000000000      0.364200000000000
H      11.163200000000000      1.634700000000000      1.675700000000000
H      10.631800000000000      3.017300000000000      0.715700000000000
H      12.404299999999999      2.523400000000000     -0.984100000000000
H      13.094400000000000      2.776400000000000      0.628200000000000
H      12.938499999999999      1.133800000000000     -0.017800000000000
H     -12.324500000000000      2.001600000000000     -0.245200000000000
