73

O      -1.388900000000000     -0.868200000000000     -0.136500000000000
O      -4.917000000000000     -0.489000000000000      1.969100000000000
C      -2.169700000000000      0.329900000000000      0.032200000000000
C      -1.840800000000000     -0.621500000000000      1.204000000000000
C      -3.536800000000000      0.241100000000000     -0.675400000000000
C      -2.820500000000000     -1.671200000000000      1.670400000000000
C      -4.282300000000000     -1.073500000000000     -0.312900000000000
C      -4.243000000000000     -1.451200000000000      1.167100000000000
C      -0.702300000000000     -0.347000000000000      2.146800000000000
C      -1.499400000000000      1.640000000000000      0.015300000000000
C      -3.323600000000000      0.248900000000000     -2.208000000000000
C      -4.422100000000000      1.461800000000000     -0.329900000000000
C      -0.643200000000000      2.068200000000000     -0.926000000000000
C       0.018000000000000      3.424400000000000     -0.909900000000000
C       1.555500000000000      3.311300000000000     -0.889200000000000
C      -0.427700000000000      4.220900000000000     -2.139800000000000
C       2.142300000000000      2.523600000000000      0.291800000000000
C       3.668000000000000      2.383700000000000      0.228900000000000
C       4.263200000000000      1.563900000000000      1.393700000000000
C       3.650100000000000      0.147800000000000      1.467500000000000
C       5.787400000000000      1.438800000000000      1.280200000000000
C       3.588300000000000     -0.571900000000000      0.115400000000000
C       3.043100000000000     -1.994100000000000      0.273700000000000
C       2.937900000000000     -2.760000000000000     -1.050300000000000
C       2.335200000000000     -4.174900000000000     -0.963000000000000
C       2.297200000000000     -4.806500000000000     -2.357600000000000
C       0.931100000000000     -4.175200000000000     -0.357700000000000
H      -2.825400000000000     -1.700000000000000      2.767000000000000
H      -2.462000000000000     -2.650700000000000      1.328500000000000
H      -3.846500000000000     -1.907900000000000     -0.879900000000000
H      -5.328500000000000     -0.996100000000000     -0.636700000000000
H      -4.799400000000000     -2.387800000000000      1.294300000000000
H       0.114900000000000      0.202800000000000      1.671800000000000
H      -0.283000000000000     -1.286100000000000      2.523900000000000
H      -1.056500000000000      0.238000000000000      3.001300000000000
H      -1.735700000000000      2.304800000000000      0.843000000000000
H      -4.275600000000000      0.122900000000000     -2.736600000000000
H      -2.656800000000000     -0.561800000000000     -2.522700000000000
H      -2.880700000000000      1.188400000000000     -2.554800000000000
H      -5.439300000000000      1.338800000000000     -0.718200000000000
H      -4.486500000000000      1.625300000000000      0.750100000000000
H      -4.023900000000000      2.385900000000000     -0.765300000000000
H      -0.399100000000000      1.409300000000000     -1.756600000000000
H      -4.901100000000000     -0.805400000000000      2.888300000000000
H      -0.294100000000000      3.979700000000000     -0.015700000000000
H       1.985600000000000      4.321400000000000     -0.881700000000000
H       1.894700000000000      2.840600000000000     -1.822200000000000
H      -0.127300000000000      3.727500000000000     -3.071200000000000
H       0.013500000000000      5.223400000000000     -2.132300000000000
H      -1.517300000000000      4.337400000000000     -2.157100000000000
H       1.865000000000000      3.024700000000000      1.227400000000000
H       1.675400000000000      1.536900000000000      0.316500000000000
H       4.108100000000000      3.389300000000000      0.256500000000000
H       3.967300000000000      1.959100000000000     -0.736800000000000
H       4.040800000000000      2.078400000000000      2.337400000000000
H       2.637500000000000      0.216800000000000      1.883100000000000
H       4.219000000000000     -0.459300000000000      2.183500000000000
H       6.250800000000000      2.430800000000000      1.311300000000000
H       6.198500000000000      0.855800000000000      2.111000000000000
H       6.091200000000000      0.963000000000000      0.342800000000000
H       4.587400000000000     -0.626700000000000     -0.330500000000000
H       2.946800000000000     -0.042500000000000     -0.594700000000000
H       2.053200000000000     -1.926300000000000      0.738700000000000
H       3.682200000000000     -2.559400000000000      0.962800000000000
H       2.338200000000000     -2.161900000000000     -1.749500000000000
H       3.941300000000000     -2.829700000000000     -1.490300000000000
H       2.982800000000000     -4.791000000000000     -0.326800000000000
H       1.652500000000000     -4.236800000000000     -3.035600000000000
H       3.300600000000000     -4.844600000000000     -2.794800000000000
H       1.916200000000000     -5.832200000000000     -2.309800000000000
H       0.263800000000000     -3.497000000000000     -0.900300000000000
H       0.948900000000000     -3.870200000000000      0.693000000000000
H       0.493400000000000     -5.178800000000000     -0.392700000000000
