73

O      -3.279500000000000     -1.432800000000000     -1.918700000000000
N      -5.327900000000000      1.231100000000000     -0.418800000000000
C      -4.396000000000000      0.099500000000000     -0.431800000000000
C      -4.438100000000000     -0.601900000000000     -1.804800000000000
C      -4.703500000000000     -0.894900000000000      0.673400000000000
C      -5.699900000000000     -1.449900000000000     -2.016800000000000
C      -5.946400000000000     -1.729800000000000      0.490900000000000
C      -5.930700000000000     -2.432900000000000     -0.866100000000000
C      -3.889900000000000     -1.060200000000000      1.727700000000000
C      -5.003500000000000      2.166400000000000     -1.492900000000000
C      -5.290500000000000      1.902700000000000      0.878000000000000
C      -2.642500000000000     -0.256800000000000      1.960900000000000
C      -1.387100000000000     -0.898800000000000      1.360100000000000
C      -0.126100000000000     -0.046500000000000      1.536100000000000
C       1.103100000000000     -0.747600000000000      0.951600000000000
C      -3.593700000000000      2.711300000000000     -1.339200000000000
C      -6.249800000000000      3.080200000000000      0.914300000000000
C       2.386100000000000      0.088800000000000      1.027500000000000
C       3.637400000000000     -0.546100000000000      0.411100000000000
C       4.904700000000000      0.294500000000000      0.585800000000000
C       6.117000000000000     -0.405000000000000     -0.033200000000000
C       7.424900000000000      0.374900000000000      0.130800000000000
C       8.687099999999999     -0.312900000000000     -0.403600000000000
C       9.985400000000000      0.493600000000000     -0.299900000000000
C      11.191500000000000     -0.213600000000000     -0.917400000000000
C      12.467900000000000      0.586400000000000     -0.704900000000000
H      -3.368000000000000      0.443400000000000     -0.306800000000000
H      -4.327300000000000      0.073900000000000     -2.651600000000000
H      -5.615900000000000     -2.021000000000000     -2.948900000000000
H      -6.573100000000000     -0.793600000000000     -2.113600000000000
H      -6.044600000000000     -2.481600000000000      1.282900000000000
H      -6.829100000000000     -1.082700000000000      0.561800000000000
H      -5.143700000000000     -3.197800000000000     -0.874800000000000
H      -6.881400000000000     -2.956700000000000     -1.018500000000000
H      -4.127800000000000     -1.810600000000000      2.477500000000000
H      -5.160900000000000      1.756200000000000     -2.493500000000000
H      -5.708500000000000      3.005400000000000     -1.502300000000000
H      -5.651200000000000      1.222800000000000      1.658800000000000
H      -4.297200000000000      2.233200000000000      1.194100000000000
H      -2.733600000000000      0.777400000000000      1.621600000000000
H      -2.506600000000000     -0.173700000000000      3.047600000000000
H      -1.228800000000000     -1.880300000000000      1.825400000000000
H      -1.541500000000000     -1.082900000000000      0.290000000000000
H      -3.318400000000000     -1.878900000000000     -2.781800000000000
H      -0.268700000000000      0.921100000000000      1.040400000000000
H       0.038700000000000      0.155400000000000      2.601100000000000
H       1.264400000000000     -1.697100000000000      1.476600000000000
H       0.910200000000000     -0.996800000000000     -0.099300000000000
H      -3.396400000000000      3.205800000000000     -0.385600000000000
H      -2.813100000000000      1.970300000000000     -1.531300000000000
H      -3.446100000000000      3.486400000000000     -2.102400000000000
H      -5.862900000000000      3.956300000000000      0.384800000000000
H      -7.232900000000000      2.819500000000000      0.507000000000000
H      -6.404900000000000      3.392100000000000      1.953700000000000
H       2.589500000000000      0.314300000000000      2.082100000000000
H       2.207800000000000      1.053300000000000      0.535100000000000
H       3.458000000000000     -0.718900000000000     -0.657200000000000
H       3.793300000000000     -1.531300000000000      0.868100000000000
H       4.764700000000000      1.275200000000000      0.116100000000000
H       5.085700000000000      0.468300000000000      1.653100000000000
H       5.935200000000000     -0.574300000000000     -1.101700000000000
H       6.236600000000000     -1.393600000000000      0.427200000000000
H       7.576300000000000      0.592300000000000      1.195700000000000
H       7.316900000000000      1.345800000000000     -0.369300000000000
H       8.818199999999999     -1.264800000000000      0.126300000000000
H       8.518800000000001     -0.567900000000000     -1.457700000000000
H       9.845100000000000      1.463600000000000     -0.792700000000000
H      10.184900000000001      0.703200000000000      0.758300000000000
H      11.026899999999999     -0.360600000000000     -1.991000000000000
H      11.311000000000000     -1.205900000000000     -0.467400000000000
H      12.676299999999999      0.717800000000000      0.361700000000000
H      12.391299999999999      1.576600000000000     -1.165200000000000
H      13.319500000000000      0.067100000000000     -1.155500000000000
