73

O      -3.781300000000000     -1.579100000000000      0.398300000000000
O      -2.946700000000000     -2.647100000000000     -1.472500000000000
C       2.790000000000000     -0.690500000000000      0.324100000000000
C       1.407800000000000     -1.043500000000000     -0.221900000000000
C       3.824800000000000     -1.739800000000000     -0.101600000000000
C       3.212700000000000      0.709900000000000     -0.137400000000000
C       5.649000000000000      0.018200000000000     -0.072200000000000
C       0.381200000000000      0.028200000000000      0.168600000000000
C       0.967500000000000     -2.428000000000000      0.272700000000000
C       5.226500000000000     -1.382300000000000      0.389500000000000
C       4.614400000000000      1.067200000000000      0.354000000000000
C      -1.020500000000000     -0.327500000000000     -0.322600000000000
C      -0.433800000000000     -2.782800000000000     -0.220000000000000
C      -1.452600000000000     -1.710400000000000      0.165600000000000
C       7.031700000000000      0.371600000000000      0.472400000000000
C       7.658200000000000      1.520200000000000     -0.312800000000000
C      -2.790500000000000     -2.045200000000000     -0.418700000000000
C       9.027500000000000      1.892000000000000      0.255400000000000
C      -5.113200000000000     -1.830500000000000     -0.041000000000000
C       9.645899999999999      3.058100000000000     -0.499000000000000
C      -6.026500000000000     -0.704100000000000      0.451900000000000
C      -5.562700000000000     -3.181000000000000      0.500400000000000
C      -5.601000000000000      0.664800000000000     -0.093200000000000
C      -6.544800000000000      1.769200000000000      0.388900000000000
C      -6.184700000000000      3.156200000000000     -0.150600000000000
C      -7.169800000000000      4.247300000000000      0.270600000000000
C      -6.809100000000000      5.588900000000000     -0.348900000000000
H       2.747300000000000     -0.684000000000000      1.422700000000000
H       1.457100000000000     -1.077000000000000     -1.319900000000000
H       3.590600000000000     -2.724700000000000      0.313100000000000
H       3.836300000000000     -1.840000000000000     -1.194300000000000
H       3.181800000000000      0.775500000000000     -1.232300000000000
H       2.543500000000000      1.480700000000000      0.256500000000000
H       5.693400000000000      0.001200000000000     -1.170100000000000
H       0.624900000000000      0.998400000000000     -0.274300000000000
H       0.363600000000000      0.158700000000000      1.257900000000000
H       0.987600000000000     -2.463000000000000      1.369200000000000
H       1.635200000000000     -3.214800000000000     -0.090400000000000
H       5.937900000000000     -2.129900000000000      0.018200000000000
H       5.251600000000000     -1.436800000000000      1.485500000000000
H       4.599800000000000      1.156300000000000      1.448000000000000
H       4.874100000000000      2.055000000000000     -0.040700000000000
H      -1.731900000000000      0.432700000000000      0.023200000000000
H      -1.042400000000000     -0.291700000000000     -1.419900000000000
H      -0.402500000000000     -2.909600000000000     -1.310300000000000
H      -0.734600000000000     -3.752800000000000      0.195000000000000
H      -1.540000000000000     -1.707300000000000      1.260400000000000
H       7.693400000000000     -0.500400000000000      0.392600000000000
H       6.971900000000000      0.624000000000000      1.538400000000000
H       7.015300000000000      2.406000000000000     -0.280400000000000
H       7.763800000000000      1.236300000000000     -1.367000000000000
H       8.931900000000001      2.161500000000000      1.313700000000000
H       9.701000000000001      1.028900000000000      0.199700000000000
H      -5.166800000000000     -1.847200000000000     -1.137400000000000
H      10.625299999999999      3.305400000000000     -0.077800000000000
H       9.013000000000000      3.948900000000000     -0.432400000000000
H       9.783300000000001      2.812200000000000     -1.556900000000000
H      -7.061900000000000     -0.912900000000000      0.156700000000000
H      -5.998500000000000     -0.664400000000000      1.548300000000000
H      -5.500300000000000     -3.204300000000000      1.594000000000000
H      -4.915100000000000     -3.983600000000000      0.132300000000000
H      -6.591700000000000     -3.405400000000000      0.203700000000000
H      -5.598400000000000      0.638000000000000     -1.189500000000000
H      -4.579200000000000      0.898900000000000      0.227700000000000
H      -7.569600000000000      1.523600000000000      0.083200000000000
H      -6.540400000000000      1.799400000000000      1.485600000000000
H      -6.146500000000000      3.110900000000000     -1.246400000000000
H      -5.176700000000000      3.424200000000000      0.189400000000000
H      -8.184600000000000      3.970900000000000     -0.038000000000000
H      -7.175700000000000      4.339500000000000      1.362700000000000
H      -5.808800000000000      5.907700000000000     -0.038700000000000
H      -6.829700000000000      5.535000000000000     -1.442000000000000
H      -7.523300000000000      6.355900000000000     -0.033200000000000
