73

O       4.799100000000000     -1.934500000000000      1.209200000000000
N      -0.050700000000000      1.966200000000000     -0.490600000000000
C       1.961100000000000      0.445000000000000     -0.938600000000000
C       2.133400000000000      0.684200000000000      0.587000000000000
C       3.437300000000000      0.069900000000000      1.159400000000000
C       2.063400000000000     -1.073800000000000     -1.226600000000000
C       0.548200000000000      0.953000000000000     -1.377600000000000
C       1.964500000000000      2.179700000000000      0.928000000000000
C       3.525700000000000     -1.430100000000000      0.809900000000000
C       3.342900000000000     -1.700500000000000     -0.682400000000000
C       0.930300000000000      2.899700000000000      0.050700000000000
C       3.044500000000000      1.179200000000000     -1.770400000000000
C      -1.148800000000000      2.662200000000000     -1.155800000000000
C       3.540300000000000      0.259700000000000      2.680700000000000
C      -2.199100000000000      3.130100000000000     -0.131600000000000
C      -0.590800000000000      3.802000000000000     -2.004700000000000
C      -2.747300000000000      2.029400000000000      0.785900000000000
C      -3.487500000000000      0.919900000000000      0.024800000000000
C      -4.124200000000000     -0.189600000000000      0.887800000000000
C      -3.054700000000000     -1.003000000000000      1.652300000000000
C      -5.126500000000000      0.380200000000000      1.899200000000000
C      -1.988000000000000     -1.702900000000000      0.799300000000000
C      -2.570000000000000     -2.665800000000000     -0.240500000000000
C      -1.496000000000000     -3.376800000000000     -1.086300000000000
C      -0.538600000000000     -4.213800000000000     -0.236500000000000
C      -2.168400000000000     -4.269800000000000     -2.132500000000000
H       1.302300000000000      0.159000000000000      1.085900000000000
H       4.307600000000000      0.581100000000000      0.728300000000000
H       1.212300000000000     -1.590200000000000     -0.765100000000000
H       1.993300000000000     -1.264000000000000     -2.304700000000000
H       0.614400000000000      1.310300000000000     -2.413200000000000
H      -0.151500000000000      0.109000000000000     -1.407100000000000
H       1.649600000000000      2.261700000000000      1.976300000000000
H       2.924600000000000      2.704300000000000      0.848000000000000
H       2.762200000000000     -1.981200000000000      1.373500000000000
H       3.319500000000000     -2.784100000000000     -0.854300000000000
H       4.218100000000000     -1.344700000000000     -1.239000000000000
H       0.456300000000000      3.663200000000000      0.679300000000000
H       1.478600000000000      3.438100000000000     -0.729700000000000
H       2.984700000000000      2.265900000000000     -1.683000000000000
H       4.059700000000000      0.895000000000000     -1.480400000000000
H       2.937600000000000      0.940700000000000     -2.835400000000000
H      -1.661400000000000      1.973100000000000     -1.839400000000000
H       3.588400000000000      1.320100000000000      2.947000000000000
H       4.446500000000000     -0.208500000000000      3.079000000000000
H       2.678900000000000     -0.182300000000000      3.192800000000000
H      -1.784200000000000      3.926000000000000      0.499400000000000
H      -3.037300000000000      3.587700000000000     -0.673300000000000
H       4.815500000000000     -2.885000000000000      1.004300000000000
H      -0.252300000000000      4.658200000000000     -1.410900000000000
H      -1.391700000000000      4.188100000000000     -2.648000000000000
H       0.213900000000000      3.489900000000000     -2.678300000000000
H      -1.933100000000000      1.605600000000000      1.382700000000000
H      -3.434600000000000      2.507800000000000      1.492700000000000
H      -4.288700000000000      1.388200000000000     -0.563000000000000
H      -2.820500000000000      0.456100000000000     -0.708500000000000
H      -4.681000000000000     -0.859800000000000      0.222300000000000
H      -2.546000000000000     -0.362300000000000      2.383200000000000
H      -3.568200000000000     -1.773500000000000      2.243300000000000
H      -5.865300000000000      1.014700000000000      1.398700000000000
H      -5.668800000000000     -0.431300000000000      2.396800000000000
H      -4.635400000000000      0.972100000000000      2.678000000000000
H      -1.337300000000000     -2.251500000000000      1.489400000000000
H      -1.354300000000000     -0.959100000000000      0.307600000000000
H      -3.193900000000000     -3.411800000000000      0.268000000000000
H      -3.227200000000000     -2.114600000000000     -0.922800000000000
H      -0.910300000000000     -2.617600000000000     -1.619200000000000
H      -1.083700000000000     -4.930600000000000      0.386600000000000
H       0.072400000000000     -3.585300000000000      0.418000000000000
H       0.152600000000000     -4.777200000000000     -0.872900000000000
H      -2.765100000000000     -5.057100000000000     -1.659300000000000
H      -1.421000000000000     -4.749300000000000     -2.773500000000000
H      -2.831100000000000     -3.682600000000000     -2.777100000000000
