74

O      -2.273000000000000     -0.514100000000000      1.220600000000000
N      -3.783600000000000      0.403800000000000     -0.963600000000000
C       0.336400000000000      0.755900000000000      0.212000000000000
C      -0.199100000000000     -0.690700000000000     -0.107200000000000
C       1.864100000000000      0.490000000000000      0.239400000000000
C       0.569400000000000     -1.519200000000000      0.937500000000000
C      -1.747000000000000     -0.736200000000000     -0.082700000000000
C       1.972200000000000     -0.864600000000000      0.990100000000000
C      -0.166900000000000      1.732300000000000     -0.863900000000000
C      -2.324800000000000      0.311100000000000     -1.075500000000000
C      -1.707600000000000      1.722300000000000     -0.950000000000000
C       2.755200000000000      1.567500000000000      0.846100000000000
C      -0.087000000000000      1.334300000000000      1.599600000000000
C       0.238100000000000     -1.251900000000000     -1.504800000000000
C       4.135700000000000      1.028300000000000      1.276200000000000
C       2.941200000000000      2.712200000000000     -0.156200000000000
C       4.915000000000000      0.372000000000000      0.132000000000000
C      -4.410500000000000     -0.810400000000000     -1.480900000000000
C      -4.273700000000000      1.580100000000000     -1.678500000000000
C       6.259200000000000     -0.224500000000000      0.570300000000000
C      -5.845000000000000     -0.927400000000000     -0.961900000000000
C       7.124600000000000     -0.839800000000000     -0.545900000000000
C      -5.923000000000000     -0.993900000000000      0.567200000000000
C       6.358700000000000     -1.980900000000000     -1.221900000000000
C       8.467599999999999     -1.354900000000000     -0.027800000000000
C      -7.330200000000000     -1.083000000000000      1.080400000000000
C      -7.865900000000000     -0.218300000000000      1.949200000000000
H       2.203200000000000      0.324600000000000     -0.791400000000000
H       0.634900000000000     -2.581200000000000      0.676200000000000
H       0.104400000000000     -1.466900000000000      1.927600000000000
H      -2.057800000000000     -1.747900000000000     -0.362400000000000
H       2.241100000000000     -0.751100000000000      2.045000000000000
H       2.706400000000000     -1.529300000000000      0.525300000000000
H       0.260200000000000      1.495900000000000     -1.844300000000000
H       0.137100000000000      2.759200000000000     -0.644100000000000
H      -2.085000000000000     -0.023000000000000     -2.094600000000000
H      -2.105900000000000      2.238500000000000     -0.067500000000000
H      -1.949100000000000      2.343900000000000     -1.821100000000000
H       2.326800000000000      1.986000000000000      1.761100000000000
H       0.296600000000000      0.751200000000000      2.442100000000000
H      -1.167300000000000      1.408300000000000      1.728900000000000
H       0.272600000000000      2.362700000000000      1.720600000000000
H      -0.244000000000000     -2.219900000000000     -1.690400000000000
H       1.313800000000000     -1.439700000000000     -1.579100000000000
H      -0.025500000000000     -0.595500000000000     -2.336900000000000
H       4.733300000000000      1.860100000000000      1.673200000000000
H       4.042200000000000      0.326600000000000      2.111500000000000
H       3.150800000000000      2.355500000000000     -1.169700000000000
H       2.058400000000000      3.352600000000000     -0.194400000000000
H       3.769900000000000      3.363700000000000      0.144300000000000
H      -2.047100000000000     -1.285000000000000      1.767400000000000
H       4.321800000000000     -0.413200000000000     -0.336700000000000
H       5.115000000000000      1.116600000000000     -0.647400000000000
H      -3.899300000000000     -1.723100000000000     -1.163500000000000
H      -4.407400000000000     -0.826600000000000     -2.578800000000000
H      -5.367400000000000      1.603600000000000     -1.717900000000000
H      -3.924000000000000      1.621000000000000     -2.717400000000000
H      -4.027000000000000      2.515600000000000     -1.165300000000000
H       6.071600000000000     -0.984100000000000      1.340600000000000
H       6.842600000000000      0.566600000000000      1.059400000000000
H      -6.279100000000000     -1.847600000000000     -1.376200000000000
H      -6.478700000000000     -0.115900000000000     -1.335900000000000
H       7.326800000000000     -0.067200000000000     -1.298200000000000
H      -5.427200000000000     -0.121900000000000      1.009800000000000
H      -5.374600000000000     -1.877000000000000      0.917900000000000
H       6.024500000000000     -2.726600000000000     -0.492500000000000
H       5.483700000000000     -1.612800000000000     -1.765900000000000
H       6.994100000000000     -2.490500000000000     -1.954800000000000
H       9.035600000000001     -0.545100000000000      0.442000000000000
H       9.073700000000001     -1.758800000000000     -0.845500000000000
H       8.328300000000000     -2.146400000000000      0.716200000000000
H      -7.937500000000000     -1.913900000000000      0.730800000000000
H      -8.888500000000001     -0.343200000000000      2.288100000000000
H      -7.300900000000000      0.622900000000000      2.335100000000000
