74

N       0.171400000000000     -2.716000000000000      0.483800000000000
N       6.962700000000000      1.949300000000000      0.677600000000000
C      -1.818600000000000     -1.581000000000000      0.010900000000000
C      -3.893300000000000      0.635300000000000      0.146600000000000
C      -1.489000000000000     -0.177400000000000      0.579900000000000
C      -2.983300000000000     -1.480300000000000     -0.988600000000000
C      -2.713100000000000      0.556700000000000      1.137600000000000
C      -4.207000000000000     -0.770900000000000     -0.406600000000000
C      -2.101300000000000     -2.588100000000000      1.150300000000000
C      -0.578800000000000     -2.197800000000000     -0.660300000000000
C      -0.818700000000000     -3.408300000000000      1.308300000000000
C      -3.571100000000000      1.612300000000000     -1.001100000000000
C      -5.134300000000000      1.169700000000000      0.886600000000000
C       1.271300000000000     -3.581500000000000      0.086600000000000
C      -4.761800000000000      1.758900000000000     -1.934100000000000
C      -4.883700000000000      2.572100000000000      1.416900000000000
C       2.307900000000000     -2.850100000000000     -0.768800000000000
C      -4.436100000000000      2.704900000000000     -3.078700000000000
C      -6.100400000000000      3.090400000000000      2.166800000000000
C       2.950500000000000     -1.653700000000000     -0.060400000000000
C       3.966400000000000     -0.954200000000000     -0.966700000000000
C       4.588800000000000      0.259700000000000     -0.272600000000000
C       5.626500000000000      0.939400000000000     -1.170600000000000
C       6.228800000000000      2.205400000000000     -0.556200000000000
C       7.167100000000000      3.192600000000000      1.423000000000000
C       8.249100000000000      1.312700000000000      0.389700000000000
H      -0.733600000000000     -0.248400000000000      1.372900000000000
H      -1.037100000000000      0.437600000000000     -0.208700000000000
H      -2.651500000000000     -0.960400000000000     -1.895300000000000
H      -3.283300000000000     -2.484100000000000     -1.316300000000000
H      -2.371700000000000      1.556900000000000      1.427700000000000
H      -3.035100000000000      0.061100000000000      2.061700000000000
H      -4.588600000000000     -1.389400000000000      0.418300000000000
H      -5.017500000000000     -0.771800000000000     -1.140300000000000
H      -2.355700000000000     -2.092600000000000      2.092400000000000
H      -2.930700000000000     -3.260600000000000      0.901800000000000
H      -0.022900000000000     -1.442300000000000     -1.225100000000000
H      -0.866000000000000     -3.004600000000000     -1.348200000000000
H      -1.001900000000000     -4.432300000000000      0.958400000000000
H      -0.501200000000000     -3.456200000000000      2.354900000000000
H      -3.236500000000000      2.589200000000000     -0.635900000000000
H      -2.720500000000000      1.241900000000000     -1.585700000000000
H      -6.041600000000000      1.130700000000000      0.274600000000000
H      -5.351300000000000      0.510700000000000      1.739500000000000
H       1.771800000000000     -3.964800000000000      0.984800000000000
H       0.907800000000000     -4.454600000000000     -0.470900000000000
H      -5.637800000000000      2.177200000000000     -1.432500000000000
H      -5.055400000000000      0.808800000000000     -2.386200000000000
H      -4.686800000000000      3.292100000000000      0.618900000000000
H      -4.041300000000000      2.604000000000000      2.113000000000000
H       3.098000000000000     -3.567700000000000     -1.026300000000000
H       1.873100000000000     -2.534900000000000     -1.724400000000000
H      -3.593900000000000      2.331700000000000     -3.670700000000000
H      -5.298500000000000      2.806400000000000     -3.745300000000000
H      -4.179000000000000      3.701300000000000     -2.704800000000000
H      -6.977000000000000      3.133500000000000      1.512300000000000
H      -5.911800000000000      4.099900000000000      2.546000000000000
H      -6.339700000000000      2.448200000000000      3.020600000000000
H       3.445300000000000     -1.993100000000000      0.857500000000000
H       2.181600000000000     -0.930500000000000      0.234900000000000
H       4.755000000000000     -1.662700000000000     -1.247600000000000
H       3.474000000000000     -0.633300000000000     -1.892900000000000
H       5.059100000000000     -0.061600000000000      0.664100000000000
H       3.801200000000000      0.976800000000000     -0.011400000000000
H       6.410100000000000      0.224300000000000     -1.444800000000000
H       5.139500000000000      1.224500000000000     -2.112300000000000
H       6.862500000000000      2.709000000000000     -1.298200000000000
H       5.393600000000000      2.890000000000000     -0.355600000000000
H       6.205800000000000      3.643200000000000      1.694100000000000
H       7.745000000000000      3.927100000000000      0.850300000000000
H       7.694100000000000      2.995700000000000      2.363400000000000
H       8.118300000000000      0.328500000000000     -0.070300000000000
H       8.802300000000001      1.136700000000000      1.319600000000000
H       8.878500000000001      1.924300000000000     -0.267100000000000
