74

O      -2.488600000000000     -1.416800000000000      2.242500000000000
N      -4.125900000000000     -2.537600000000000      1.181100000000000
C      -3.027700000000000     -0.572500000000000      0.036400000000000
C      -4.206400000000000      0.406200000000000     -0.036700000000000
C      -2.771500000000000     -1.326100000000000     -1.289000000000000
C      -1.760300000000000      0.285900000000000      0.301800000000000
C      -4.048800000000000      1.311500000000000     -1.270000000000000
C      -4.311500000000000      1.165800000000000      1.293200000000000
C      -3.188000000000000     -1.537500000000000      1.229400000000000
C      -5.326800000000000      2.069100000000000     -1.621700000000000
C      -5.422500000000000      2.212900000000000      1.368900000000000
C      -3.960100000000000     -2.019500000000000     -1.949400000000000
C      -0.453800000000000     -0.428300000000000     -0.054300000000000
C      -5.506500000000000      3.405500000000000     -0.909500000000000
C      -5.107000000000000      3.466900000000000      0.560900000000000
C      -4.485300000000000     -3.221000000000000     -1.177200000000000
C      -5.104100000000000     -2.849300000000000      0.156800000000000
C       0.793400000000000      0.395300000000000      0.277500000000000
C       2.101800000000000     -0.312700000000000     -0.089300000000000
C       3.349900000000000      0.519500000000000      0.217300000000000
C       4.625100000000000     -0.245100000000000     -0.148100000000000
C       5.909000000000000      0.534900000000000      0.149200000000000
C       7.184100000000000     -0.239200000000000     -0.193100000000000
C       8.434200000000001      0.580700000000000      0.134600000000000
C       9.709800000000000     -0.175000000000000     -0.241500000000000
C      10.958900000000000      0.629700000000000      0.116600000000000
C      12.228400000000001     -0.103400000000000     -0.286200000000000
H      -5.144500000000000     -0.139100000000000     -0.155100000000000
H      -2.031400000000000     -2.120300000000000     -1.117400000000000
H      -2.328800000000000     -0.664100000000000     -2.043500000000000
H      -1.678500000000000      0.591500000000000      1.351600000000000
H      -1.742400000000000      1.213700000000000     -0.272600000000000
H      -3.814500000000000      0.736500000000000     -2.167300000000000
H      -3.250000000000000      2.050000000000000     -1.161000000000000
H      -3.385000000000000      1.683500000000000      1.555500000000000
H      -4.507500000000000      0.453300000000000      2.103700000000000
H      -6.202400000000000      1.433500000000000     -1.440700000000000
H      -5.332200000000000      2.271200000000000     -2.701000000000000
H      -5.518300000000000      2.511100000000000      2.421100000000000
H      -6.389200000000000      1.784500000000000      1.080900000000000
H      -4.778200000000000     -1.319500000000000     -2.146700000000000
H      -3.632800000000000     -2.377300000000000     -2.934500000000000
H      -0.393900000000000     -0.639500000000000     -1.126600000000000
H      -0.390400000000000     -1.386400000000000      0.475100000000000
H      -6.560500000000000      3.697200000000000     -1.003800000000000
H      -4.939200000000000      4.176500000000000     -1.446700000000000
H      -4.038900000000000      3.705300000000000      0.640300000000000
H      -5.632700000000000      4.318500000000000      1.011500000000000
H      -5.254300000000000     -3.705700000000000     -1.791400000000000
H      -3.684700000000000     -3.957400000000000     -1.035700000000000
H      -4.170300000000000     -3.121400000000000      2.011000000000000
H      -5.661600000000000     -3.714200000000000      0.535300000000000
H      -5.823300000000000     -2.033000000000000      0.069900000000000
H       0.799600000000000      0.626000000000000      1.349900000000000
H       0.744400000000000      1.354400000000000     -0.252800000000000
H       2.088300000000000     -0.560300000000000     -1.158000000000000
H       2.156900000000000     -1.263500000000000      0.455300000000000
H       3.311600000000000      1.461500000000000     -0.342400000000000
H       3.367900000000000      0.775500000000000      1.283300000000000
H       4.648200000000000     -1.192800000000000      0.404200000000000
H       4.601200000000000     -0.501000000000000     -1.214700000000000
H       5.893700000000000      1.476100000000000     -0.414300000000000
H       5.925000000000000      0.803300000000000      1.212900000000000
H       7.203400000000000     -1.181500000000000      0.367400000000000
H       7.179100000000000     -0.496200000000000     -1.259200000000000
H       8.401500000000000      1.534700000000000     -0.405600000000000
H       8.447300000000000      0.815800000000000      1.205900000000000
H       9.733900000000000     -1.139900000000000      0.279500000000000
H       9.704800000000001     -0.389000000000000     -1.317300000000000
H      10.980800000000000      0.822900000000000      1.195400000000000
H      10.932100000000000      1.603000000000000     -0.387000000000000
H      12.302099999999999     -1.069300000000000      0.223600000000000
H      12.252800000000001     -0.281800000000000     -1.366000000000000
H      13.109100000000000      0.489300000000000     -0.020000000000000
