74

N      -5.158000000000000     -1.165000000000000     -0.006500000000000
N      -7.823200000000000      2.215700000000000      0.223000000000000
C      -2.832600000000000     -1.081600000000000      0.228400000000000
C      -1.660500000000000     -1.474700000000000      1.144500000000000
C      -2.518800000000000      0.267500000000000     -0.468600000000000
C      -3.169600000000000     -2.177500000000000     -0.808900000000000
C      -4.142000000000000     -0.984500000000000      1.030600000000000
C      -0.022000000000000     -0.126600000000000     -0.231300000000000
C      -0.316700000000000     -1.483200000000000      0.417400000000000
C      -1.159200000000000      0.286200000000000     -1.171600000000000
C      -4.695000000000000     -2.302300000000000     -0.801200000000000
C       1.309700000000000     -0.163500000000000     -0.979000000000000
C      -6.488900000000000     -1.373100000000000      0.543700000000000
C       2.493900000000000     -0.044200000000000     -0.019800000000000
C      -7.101700000000000     -0.035700000000000      0.962900000000000
C       3.824800000000000     -0.047700000000000     -0.775500000000000
C      -7.254400000000000      0.943000000000000     -0.203500000000000
C       5.006900000000000      0.110100000000000      0.183400000000000
C       6.361700000000000      0.185500000000000     -0.526800000000000
C       7.546600000000000      0.317800000000000      0.434000000000000
C      -8.372600000000000      2.944500000000000     -0.921800000000000
C      -6.814900000000000      3.028600000000000      0.905400000000000
C       8.872199999999999      0.376300000000000     -0.330200000000000
C      10.097700000000000      0.478600000000000      0.582300000000000
C      11.416100000000000      0.610700000000000     -0.180900000000000
C      12.600500000000000      0.695200000000000      0.770000000000000
H      -1.603200000000000     -0.769900000000000      1.984700000000000
H      -1.835300000000000     -2.464400000000000      1.585000000000000
H      -3.297700000000000      0.521600000000000     -1.198400000000000
H      -2.527400000000000      1.070000000000000      0.281300000000000
H      -2.813000000000000     -1.926000000000000     -1.812700000000000
H      -2.727100000000000     -3.143300000000000     -0.537900000000000
H      -4.233700000000000     -0.019400000000000      1.539700000000000
H      -4.195100000000000     -1.779900000000000      1.786300000000000
H       0.035800000000000      0.631900000000000      0.561700000000000
H      -0.315000000000000     -2.274900000000000     -0.342100000000000
H       0.464300000000000     -1.740700000000000      1.141100000000000
H      -0.975000000000000      1.297200000000000     -1.555700000000000
H      -1.180900000000000     -0.376900000000000     -2.044600000000000
H      -5.103900000000000     -2.272700000000000     -1.816200000000000
H      -4.976100000000000     -3.260100000000000     -0.344500000000000
H       1.394200000000000     -1.078700000000000     -1.577700000000000
H       1.357700000000000      0.676900000000000     -1.683500000000000
H      -7.143100000000000     -1.812700000000000     -0.220700000000000
H      -6.481500000000000     -2.072100000000000      1.389300000000000
H       2.490400000000000     -0.872800000000000      0.696700000000000
H       2.406800000000000      0.883800000000000      0.558500000000000
H      -6.502900000000000      0.396400000000000      1.771400000000000
H      -8.092400000000000     -0.233100000000000      1.393500000000000
H       3.835700000000000      0.771900000000000     -1.504200000000000
H       3.930500000000000     -0.983000000000000     -1.338300000000000
H      -6.301300000000000      1.100500000000000     -0.724300000000000
H      -7.925000000000000      0.464900000000000     -0.930600000000000
H       5.015500000000000     -0.732100000000000      0.886400000000000
H       4.870300000000000      1.019800000000000      0.781500000000000
H       6.357200000000000      1.039000000000000     -1.216000000000000
H       6.492700000000000     -0.715300000000000     -1.139400000000000
H       7.430300000000000      1.223800000000000      1.040400000000000
H       7.557500000000000     -0.535100000000000      1.123000000000000
H      -9.171900000000001      2.367400000000000     -1.400200000000000
H      -8.823200000000000      3.889000000000000     -0.597000000000000
H      -7.607700000000000      3.167600000000000     -1.674700000000000
H      -5.948400000000000      3.237900000000000      0.267200000000000
H      -7.246400000000000      3.988200000000000      1.213400000000000
H      -6.461300000000000      2.552200000000000      1.824400000000000
H       8.970499999999999     -0.517700000000000     -0.958600000000000
H       8.857500000000000      1.239100000000000     -1.007800000000000
H      10.137200000000000     -0.408200000000000      1.227100000000000
H       9.978400000000001      1.345200000000000      1.244700000000000
H      11.392500000000000      1.507500000000000     -0.810500000000000
H      11.547200000000000     -0.250500000000000     -0.846100000000000
H      12.513199999999999      1.564800000000000      1.429300000000000
H      12.669200000000000     -0.202800000000000      1.392100000000000
H      13.533300000000001      0.789300000000000      0.205200000000000
