74

O      -2.121100000000000     -1.348700000000000      2.632000000000000
N      -0.393600000000000     -0.560700000000000      1.253000000000000
C      -1.225100000000000      0.247200000000000      0.382000000000000
C       1.040100000000000     -0.585300000000000      0.985900000000000
C      -1.134600000000000     -0.279900000000000     -1.061000000000000
C      -0.821900000000000      1.725500000000000      0.527400000000000
C       1.427400000000000     -2.036900000000000      0.619100000000000
C       1.763100000000000      0.036600000000000      2.202700000000000
C      -1.835400000000000     -1.635400000000000     -1.301500000000000
C      -1.757000000000000      2.771200000000000     -0.107800000000000
C       2.842700000000000     -2.313400000000000      0.100500000000000
C       3.240100000000000      0.424100000000000      2.060300000000000
C      -3.334600000000000     -1.549600000000000     -1.645600000000000
C      -3.234000000000000      2.661500000000000      0.310000000000000
C       3.231400000000000     -1.516900000000000     -1.150300000000000
C       3.537800000000000      1.419100000000000      0.934100000000000
C      -4.255800000000000     -1.520300000000000     -0.422400000000000
C      -4.053300000000000      1.910400000000000     -0.739800000000000
C       4.751800000000000     -1.377100000000000     -1.276100000000000
C       5.033400000000000      1.455000000000000      0.598800000000000
C      -0.942000000000000     -1.284000000000000      2.302500000000000
C      -5.707800000000000     -1.140400000000000     -0.733100000000000
C      -5.398200000000000      1.389800000000000     -0.231400000000000
C       5.218800000000000     -0.285100000000000     -2.245200000000000
C       5.357800000000000      1.925000000000000     -0.822500000000000
C      -5.971300000000000      0.312300000000000     -1.168600000000000
C       4.741000000000000      1.156000000000000     -2.003100000000000
H      -2.248300000000000      0.165400000000000      0.739100000000000
H       1.234600000000000      0.048900000000000      0.125500000000000
H      -1.546300000000000      0.451900000000000     -1.763500000000000
H      -0.092100000000000     -0.389400000000000     -1.377900000000000
H      -0.757300000000000      1.963600000000000      1.598100000000000
H       0.181100000000000      1.901200000000000      0.121200000000000
H       0.732400000000000     -2.407600000000000     -0.144500000000000
H       1.278400000000000     -2.690600000000000      1.487500000000000
H       1.226600000000000      0.944500000000000      2.508900000000000
H       1.691700000000000     -0.646100000000000      3.058900000000000
H      -1.342400000000000     -2.089900000000000     -2.171400000000000
H      -1.673600000000000     -2.325900000000000     -0.467100000000000
H      -1.390500000000000      3.757600000000000      0.205500000000000
H      -1.660000000000000      2.749700000000000     -1.199500000000000
H       2.917300000000000     -3.382000000000000     -0.141500000000000
H       3.559500000000000     -2.162600000000000      0.909400000000000
H       3.569100000000000      0.872700000000000      3.007100000000000
H       3.846000000000000     -0.475800000000000      1.950500000000000
H      -3.597800000000000     -2.442500000000000     -2.228300000000000
H      -3.515500000000000     -0.703000000000000     -2.314300000000000
H      -3.654200000000000      3.669700000000000      0.411100000000000
H      -3.316000000000000      2.188700000000000      1.295100000000000
H       2.764200000000000     -0.537500000000000     -1.141100000000000
H       2.835900000000000     -2.021800000000000     -2.040300000000000
H       3.207800000000000      2.421000000000000      1.235500000000000
H       2.960300000000000      1.178100000000000      0.047300000000000
H      -4.253200000000000     -2.522800000000000      0.025200000000000
H      -3.883400000000000     -0.856700000000000      0.354300000000000
H      -3.471600000000000      1.075600000000000     -1.110300000000000
H      -4.220500000000000      2.564100000000000     -1.605500000000000
H       5.157200000000000     -2.337900000000000     -1.619500000000000
H       5.205100000000000     -1.211200000000000     -0.297600000000000
H       5.525500000000000      2.134400000000000      1.307200000000000
H       5.502800000000000      0.484300000000000      0.770400000000000
H      -0.185600000000000     -1.841000000000000      2.875000000000000
H      -6.102900000000000     -1.815000000000000     -1.502500000000000
H      -6.300800000000000     -1.330500000000000      0.171200000000000
H      -5.315200000000000      0.999400000000000      0.789000000000000
H      -6.095400000000000      2.235500000000000     -0.188000000000000
H       6.315600000000000     -0.291600000000000     -2.272600000000000
H       4.890600000000000     -0.575700000000000     -3.252000000000000
H       5.041800000000000      2.972900000000000     -0.909000000000000
H       6.448600000000000      1.929100000000000     -0.941900000000000
H      -7.060900000000000      0.440800000000000     -1.205700000000000
H      -5.616700000000000      0.465500000000000     -2.194700000000000
H       3.649700000000000      1.208400000000000     -1.975400000000000
H       5.016300000000000      1.721500000000000     -2.904900000000000
