74

O       0.695200000000000      0.816300000000000      2.084500000000000
N       3.082300000000000      1.044500000000000     -0.542900000000000
C       1.807100000000000     -2.589700000000000     -0.102300000000000
C       1.864400000000000     -1.081500000000000     -0.480900000000000
C       0.443100000000000     -3.256100000000000     -0.463000000000000
C      -3.631800000000000     -0.396900000000000     -1.043600000000000
C      -2.785700000000000     -1.069700000000000      0.081500000000000
C       3.168900000000000     -0.355800000000000     -0.136600000000000
C       2.095000000000000     -2.707500000000000      1.408800000000000
C       2.919500000000000     -3.366300000000000     -0.841400000000000
C      -0.816900000000000     -2.714100000000000      0.198700000000000
C      -2.912300000000000      0.800800000000000     -1.738200000000000
C      -1.469200000000000     -1.667500000000000     -0.347500000000000
C      -3.976500000000000     -1.437100000000000     -2.137100000000000
C      -4.968200000000000      0.064000000000000     -0.419400000000000
C      -1.329100000000000     -3.488800000000000      1.383600000000000
C      -2.468300000000000      1.965100000000000     -0.866700000000000
C       3.329800000000000      1.178300000000000     -1.978700000000000
C       4.032000000000000      1.858600000000000      0.215900000000000
C      -1.256000000000000      1.936300000000000     -0.276300000000000
C      -3.466100000000000      3.063600000000000     -0.636100000000000
C       3.180900000000000      2.621600000000000     -2.429300000000000
C       5.463800000000000      1.431100000000000     -0.058800000000000
C      -0.684800000000000      2.944800000000000      0.683400000000000
C      -0.959700000000000      2.582900000000000      2.142300000000000
C      -0.332600000000000      1.269800000000000      2.584900000000000
C      -1.025100000000000      0.553200000000000      3.715300000000000
H       1.658700000000000     -1.010700000000000     -1.555300000000000
H       1.045600000000000     -0.557100000000000      0.019000000000000
H       0.499200000000000     -4.334000000000000     -0.254800000000000
H       0.310700000000000     -3.195000000000000     -1.553400000000000
H      -3.405300000000000     -1.851100000000000      0.538700000000000
H      -2.584100000000000     -0.337100000000000      0.871600000000000
H       3.307600000000000     -0.407300000000000      0.948900000000000
H       4.022900000000000     -0.859500000000000     -0.601000000000000
H       1.440200000000000     -2.055400000000000      1.996700000000000
H       1.934700000000000     -3.736300000000000      1.752300000000000
H       3.131600000000000     -2.458300000000000      1.658700000000000
H       2.831900000000000     -3.236400000000000     -1.925800000000000
H       3.922600000000000     -3.045200000000000     -0.543800000000000
H       2.855800000000000     -4.440000000000000     -0.629200000000000
H      -3.569700000000000      1.205700000000000     -2.521400000000000
H      -2.040700000000000      0.431300000000000     -2.295400000000000
H      -1.007900000000000     -1.208900000000000     -1.218800000000000
H      -4.657300000000000     -1.012100000000000     -2.883600000000000
H      -3.080900000000000     -1.778600000000000     -2.667200000000000
H      -4.465100000000000     -2.318200000000000     -1.705800000000000
H      -5.569800000000000     -0.796900000000000     -0.104000000000000
H      -5.568000000000000      0.637200000000000     -1.134700000000000
H      -4.806600000000000      0.676000000000000      0.473500000000000
H      -1.669200000000000     -4.479900000000000      1.066600000000000
H      -0.537400000000000     -3.620000000000000      2.127000000000000
H      -2.157100000000000     -2.992700000000000      1.896200000000000
H       4.292000000000000      0.770100000000000     -2.307800000000000
H       2.569400000000000      0.615800000000000     -2.532000000000000
H       3.824700000000000      1.753500000000000      1.289000000000000
H       3.903700000000000      2.928700000000000      0.021600000000000
H      -0.598700000000000      1.097600000000000     -0.488800000000000
H      -3.616900000000000      3.620400000000000     -1.567200000000000
H      -3.159900000000000      3.781200000000000      0.128400000000000
H      -4.436100000000000      2.677000000000000     -0.321000000000000
H       2.256000000000000      3.070500000000000     -2.050500000000000
H       4.027100000000000      3.246300000000000     -2.128100000000000
H       3.136000000000000      2.661000000000000     -3.523600000000000
H       5.660500000000000      0.380400000000000      0.171900000000000
H       5.790600000000000      1.639800000000000     -1.081200000000000
H       6.129800000000000      2.011400000000000      0.591400000000000
H      -1.062300000000000      3.951000000000000      0.474700000000000
H       0.397700000000000      2.998900000000000      0.510800000000000
H      -2.042300000000000      2.522400000000000      2.304900000000000
H      -0.568000000000000      3.367200000000000      2.799500000000000
H      -1.037500000000000      1.193100000000000      4.600900000000000
H      -0.486800000000000     -0.369200000000000      3.950700000000000
H      -2.045100000000000      0.297600000000000      3.418000000000000
