74

O       4.259800000000000     -3.237300000000000      0.429800000000000
N      -3.310400000000000      1.146000000000000     -0.267700000000000
C      -0.700700000000000      2.463400000000000      0.617600000000000
C       1.710400000000000      1.995400000000000      0.611800000000000
C      -1.693800000000000      3.087100000000000     -0.349100000000000
C       0.387500000000000      1.632500000000000     -0.080400000000000
C       0.059900000000000      3.499900000000000      1.442900000000000
C       1.301300000000000      2.740000000000000      1.881300000000000
C       2.594200000000000      0.790600000000000      0.888800000000000
C      -3.663600000000000     -2.145800000000000     -0.629300000000000
C      -3.693700000000000     -0.049100000000000     -1.004700000000000
C       3.485600000000000      0.316700000000000     -0.290500000000000
C      -4.522800000000000     -0.971200000000000     -0.084600000000000
C      -2.558000000000000     -1.091200000000000     -0.911900000000000
C      -2.493900000000000      2.000300000000000     -1.125800000000000
C      -3.317900000000000     -3.247100000000000      0.351300000000000
C       4.288200000000000     -0.884400000000000      0.171300000000000
C      -0.954100000000000      4.022200000000000     -1.332300000000000
C      -2.711600000000000      3.940800000000000      0.443200000000000
C       4.464300000000000      1.421100000000000     -0.722800000000000
C       2.630300000000000     -0.102600000000000     -1.497500000000000
C       5.160000000000000     -1.498100000000000     -0.902500000000000
C       3.433800000000000     -2.072300000000000      0.578700000000000
C      -2.274800000000000     -4.204400000000000     -0.253100000000000
C      -4.576900000000000     -4.044100000000000      0.738200000000000
C      -2.723200000000000     -2.630600000000000      1.632000000000000
C       5.420100000000000     -2.877700000000000     -0.334800000000000
H      -1.225300000000000      1.803100000000000      1.323100000000000
H       2.228600000000000      2.726000000000000     -0.018200000000000
H       0.462500000000000      1.795400000000000     -1.155000000000000
H       0.145400000000000      0.570700000000000      0.046700000000000
H      -0.516500000000000      3.842100000000000      2.308500000000000
H       0.377400000000000      4.382300000000000      0.884000000000000
H       2.088800000000000      3.408200000000000      2.243400000000000
H       1.051100000000000      2.038800000000000      2.687000000000000
H       1.965000000000000     -0.028800000000000      1.257100000000000
H       3.263100000000000      1.043000000000000      1.724300000000000
H      -4.082500000000000     -2.550900000000000     -1.563600000000000
H      -4.126700000000000      0.098400000000000     -2.000700000000000
H      -4.457500000000000     -0.733900000000000      0.980000000000000
H      -5.586100000000000     -1.033400000000000     -0.340400000000000
H      -2.008100000000000     -1.253100000000000     -1.845200000000000
H      -1.822300000000000     -0.898100000000000     -0.128100000000000
H      -1.785500000000000      1.401400000000000     -1.711700000000000
H      -3.150300000000000      2.486500000000000     -1.860400000000000
H       4.932200000000000     -0.611900000000000      1.020200000000000
H      -4.103200000000000      1.680600000000000      0.085500000000000
H      -1.675300000000000      4.433900000000000     -2.050900000000000
H      -0.498300000000000      4.891800000000000     -0.852500000000000
H      -0.192700000000000      3.522400000000000     -1.934300000000000
H      -3.524500000000000      4.287100000000000     -0.205800000000000
H      -2.244600000000000      4.836600000000000      0.868200000000000
H      -3.157700000000000      3.384800000000000      1.275200000000000
H       5.135100000000000      1.086500000000000     -1.521300000000000
H       5.085200000000000      1.750900000000000      0.117800000000000
H       3.948400000000000      2.299900000000000     -1.120600000000000
H       3.185400000000000     -0.541300000000000     -2.327200000000000
H       1.806400000000000     -0.772300000000000     -1.237700000000000
H       2.172400000000000      0.784000000000000     -1.949500000000000
H       6.096300000000000     -0.957300000000000     -1.070100000000000
H       4.681000000000000     -1.637100000000000     -1.871600000000000
H       3.114800000000000     -2.012400000000000      1.623900000000000
H       2.548300000000000     -2.246800000000000     -0.034000000000000
H      -1.349000000000000     -3.676500000000000     -0.508100000000000
H      -2.020500000000000     -5.011200000000000      0.443100000000000
H      -2.652800000000000     -4.661000000000000     -1.174800000000000
H      -5.042500000000000     -4.490900000000000     -0.147600000000000
H      -5.327600000000000     -3.400900000000000      1.210500000000000
H      -4.339700000000000     -4.852900000000000      1.438200000000000
H      -1.779700000000000     -2.104400000000000      1.469200000000000
H      -3.408000000000000     -1.964900000000000      2.161600000000000
H      -2.487100000000000     -3.431400000000000      2.346000000000000
H       5.596400000000000     -3.628000000000000     -1.110800000000000
H       6.278700000000000     -2.871900000000000      0.345200000000000
