74

N      -1.296300000000000      1.924200000000000      0.070000000000000
N      -3.905900000000000     -0.502500000000000     -0.330400000000000
C       1.040900000000000      1.844700000000000      0.025300000000000
C       3.087700000000000     -0.376700000000000      0.341400000000000
C       2.325000000000000      2.022500000000000      0.852800000000000
C       1.276400000000000      0.779000000000000     -1.075200000000000
C       2.849200000000000      0.702000000000000      1.420200000000000
C       1.823300000000000     -0.543500000000000     -0.529300000000000
C       0.598200000000000      3.176300000000000     -0.621000000000000
C      -0.172800000000000      1.506600000000000      0.910400000000000
C      -0.921600000000000      3.236500000000000     -0.456600000000000
C       3.398800000000000     -1.716900000000000      1.034400000000000
C       4.300400000000000     -0.006700000000000     -0.535500000000000
C      -2.558300000000000      1.950500000000000      0.793000000000000
C       3.680900000000000     -2.801700000000000      0.008000000000000
C       5.557600000000000      0.121800000000000      0.309200000000000
C      -3.730000000000000      1.964500000000000     -0.190400000000000
C       3.965600000000000     -4.129300000000000      0.691700000000000
C       6.748900000000000      0.509200000000000     -0.552300000000000
C      -3.765000000000000      0.730700000000000     -1.095000000000000
C      -3.471000000000000     -1.653600000000000     -1.123700000000000
C      -5.291300000000000     -0.682600000000000      0.107500000000000
C      -1.946500000000000     -1.724400000000000     -1.163000000000000
C      -5.347100000000000     -1.604500000000000      1.323000000000000
C      -1.468100000000000     -2.900800000000000     -1.999900000000000
C      -6.779200000000000     -1.825300000000000      1.785200000000000
H       3.101400000000000      2.495200000000000      0.239400000000000
H       2.141900000000000      2.713800000000000      1.685600000000000
H       0.353800000000000      0.581700000000000     -1.632600000000000
H       1.985500000000000      1.173500000000000     -1.814300000000000
H       2.095200000000000      0.323000000000000      2.124800000000000
H       3.725200000000000      0.888500000000000      2.046500000000000
H       2.022200000000000     -1.181800000000000     -1.397700000000000
H       1.035600000000000     -1.044400000000000      0.046300000000000
H       1.051000000000000      4.037400000000000     -0.114500000000000
H       0.881900000000000      3.234200000000000     -1.677800000000000
H      -0.148100000000000      2.080400000000000      1.846600000000000
H      -0.237600000000000      0.444200000000000      1.162500000000000
H      -1.409700000000000      3.437300000000000     -1.415700000000000
H      -1.172800000000000      4.052000000000000      0.233300000000000
H       2.526600000000000     -2.021000000000000      1.630700000000000
H       4.213900000000000     -1.636900000000000      1.761300000000000
H       4.125700000000000      0.956100000000000     -1.030600000000000
H       4.451000000000000     -0.706000000000000     -1.364300000000000
H      -2.623400000000000      2.813800000000000      1.467400000000000
H      -2.646800000000000      1.062300000000000      1.431300000000000
H       2.834300000000000     -2.962400000000000     -0.664900000000000
H       4.559300000000000     -2.580300000000000     -0.603000000000000
H       5.468100000000000      0.894300000000000      1.076000000000000
H       5.825100000000000     -0.815100000000000      0.803900000000000
H      -3.680600000000000      2.860600000000000     -0.822000000000000
H      -4.661000000000000      2.067200000000000      0.377400000000000
H       3.110200000000000     -4.453800000000000      1.293100000000000
H       4.168100000000000     -4.905100000000000     -0.053600000000000
H       4.839000000000000     -4.055000000000000      1.347900000000000
H       6.939400000000000     -0.245400000000000     -1.322400000000000
H       7.650100000000000      0.598800000000000      0.062900000000000
H       6.581000000000000      1.471100000000000     -1.047400000000000
H      -2.858800000000000      0.743300000000000     -1.708800000000000
H      -4.590800000000000      0.835800000000000     -1.812500000000000
H      -3.823000000000000     -2.597500000000000     -0.693200000000000
H      -3.883500000000000     -1.610800000000000     -2.140800000000000
H      -5.747100000000000      0.266500000000000      0.409800000000000
H      -5.917500000000000     -1.071900000000000     -0.706600000000000
H      -1.508200000000000     -0.819100000000000     -1.589600000000000
H      -1.550700000000000     -1.824600000000000     -0.145000000000000
H      -4.907300000000000     -2.584600000000000      1.113000000000000
H      -4.770700000000000     -1.166900000000000      2.147600000000000
H      -1.814400000000000     -2.813100000000000     -3.034700000000000
H      -0.374000000000000     -2.937800000000000     -2.009800000000000
H      -1.835200000000000     -3.848200000000000     -1.592600000000000
H      -7.254100000000000     -0.878100000000000      2.060200000000000
H      -7.377500000000000     -2.294800000000000      0.997800000000000
H      -6.797900000000000     -2.480200000000000      2.662100000000000
