74

O      -2.043600000000000     -0.388200000000000      1.943700000000000
N      -3.861900000000000      0.026900000000000     -0.155700000000000
C       0.346200000000000      0.718900000000000      0.361800000000000
C      -0.148100000000000     -0.776000000000000      0.410200000000000
C       1.876900000000000      0.504300000000000      0.235200000000000
C       0.789300000000000     -1.354600000000000      1.484900000000000
C      -1.675900000000000     -0.856300000000000      0.651400000000000
C      -0.340300000000000      1.442900000000000     -0.808200000000000
C       2.150900000000000     -0.666200000000000      1.217500000000000
C      -2.429300000000000     -0.048100000000000     -0.441900000000000
C      -1.876800000000000      1.375000000000000     -0.682200000000000
C       2.779400000000000      1.705700000000000      0.491200000000000
C       0.071900000000000      1.555500000000000      1.651700000000000
C       0.137600000000000     -1.597600000000000     -0.894800000000000
C       4.229900000000000      1.301600000000000      0.829600000000000
C       2.776100000000000      2.627600000000000     -0.733500000000000
C      -4.569600000000000      0.707000000000000     -1.248600000000000
C      -4.410500000000000     -1.315900000000000      0.076700000000000
C       4.891600000000000      0.447400000000000     -0.256600000000000
C      -6.062100000000000      0.841800000000000     -0.940000000000000
C      -5.897800000000000     -1.250800000000000      0.430300000000000
C      -6.697700000000000     -0.523400000000000     -0.655700000000000
C       6.310300000000000     -0.012000000000000      0.105800000000000
C      -8.161600000000000     -0.373600000000000     -0.251200000000000
C       7.058600000000000     -0.818000000000000     -0.972700000000000
C       6.274800000000000     -2.092500000000000     -1.300200000000000
C       8.481800000000000     -1.181600000000000     -0.548700000000000
H       2.091200000000000      0.142100000000000     -0.778500000000000
H       0.877300000000000     -2.445400000000000      1.432300000000000
H       0.451300000000000     -1.114800000000000      2.498500000000000
H      -1.954200000000000     -1.915700000000000      0.609900000000000
H      -0.028500000000000      1.023600000000000     -1.770900000000000
H      -0.066000000000000      2.500800000000000     -0.839000000000000
H       2.544700000000000     -0.333800000000000      2.183200000000000
H       2.854500000000000     -1.391900000000000      0.798800000000000
H      -2.303300000000000     -0.591500000000000     -1.388500000000000
H      -2.208400000000000      2.052900000000000      0.113900000000000
H      -2.253600000000000      1.789500000000000     -1.624100000000000
H       2.449000000000000      2.289800000000000      1.354600000000000
H       0.586000000000000      1.164100000000000      2.534500000000000
H       0.391600000000000      2.595500000000000      1.518600000000000
H      -0.986600000000000      1.628500000000000      1.904300000000000
H      -0.263900000000000     -1.131100000000000     -1.797000000000000
H      -0.310700000000000     -2.596100000000000     -0.818900000000000
H       1.203700000000000     -1.767000000000000     -1.075000000000000
H       4.828100000000000      2.212100000000000      0.970000000000000
H       4.280100000000000      0.781900000000000      1.792000000000000
H       2.874400000000000      2.078200000000000     -1.675200000000000
H       1.862900000000000      3.223300000000000     -0.778400000000000
H       3.600500000000000      3.348200000000000     -0.682100000000000
H      -1.709700000000000     -1.026300000000000      2.596200000000000
H      -4.434500000000000      0.178200000000000     -2.201100000000000
H      -4.227900000000000      1.736500000000000     -1.384800000000000
H      -3.950000000000000     -1.813400000000000      0.934200000000000
H      -4.266600000000000     -1.959800000000000     -0.800900000000000
H       4.951600000000000      1.023300000000000     -1.187600000000000
H       4.286300000000000     -0.432000000000000     -0.476500000000000
H      -6.567900000000000      1.318900000000000     -1.788100000000000
H      -6.197300000000000      1.505400000000000     -0.075400000000000
H      -6.021300000000000     -0.738300000000000      1.393700000000000
H      -6.286100000000000     -2.268300000000000      0.560200000000000
H      -6.658900000000000     -1.122500000000000     -1.575300000000000
H       6.262200000000000     -0.604000000000000      1.029300000000000
H       6.908200000000000      0.877100000000000      0.345700000000000
H      -8.264200000000001      0.218100000000000      0.664800000000000
H      -8.617000000000001     -1.353500000000000     -0.073800000000000
H      -8.733200000000000      0.124300000000000     -1.041400000000000
H       7.122800000000000     -0.209200000000000     -1.883300000000000
H       5.319700000000000     -1.865700000000000     -1.783400000000000
H       6.075600000000000     -2.683000000000000     -0.399500000000000
H       6.838400000000000     -2.723400000000000     -1.996600000000000
H       9.000000000000000     -1.727000000000000     -1.344400000000000
H       9.061100000000000     -0.278700000000000     -0.329200000000000
H       8.479900000000001     -1.808900000000000      0.349100000000000
