74

O       5.926700000000000     -2.110100000000000     -0.079300000000000
N       4.359400000000000      0.236700000000000      0.313300000000000
C      -4.011100000000000      0.811000000000000     -0.575400000000000
C      -2.490900000000000      0.684500000000000     -0.654300000000000
C      -4.584500000000000     -0.351300000000000      0.232900000000000
C      -1.895600000000000      1.820300000000000     -1.495900000000000
C      -1.875200000000000      0.667300000000000      0.750500000000000
C       0.245400000000000      1.726600000000000     -0.144100000000000
C      -0.370700000000000      1.744400000000000     -1.548900000000000
C      -0.350300000000000      0.591000000000000      0.697600000000000
C      -4.200400000000000     -1.694600000000000     -0.402100000000000
C      -6.108600000000000     -0.223100000000000      0.360300000000000
C      -4.387300000000000      2.136600000000000      0.108000000000000
C      -4.608800000000000      0.785200000000000     -1.992300000000000
C       1.765300000000000      1.598500000000000     -0.223300000000000
C      -4.807100000000000     -2.871700000000000      0.358300000000000
C      -6.711900000000000     -1.402600000000000      1.119600000000000
C      -6.320800000000000     -2.736200000000000      0.490600000000000
C       2.457300000000000      1.613800000000000      1.154100000000000
C       3.985800000000000      1.463600000000000      1.015000000000000
C       2.151000000000000      2.900200000000000      1.929500000000000
C       4.216900000000000     -0.930400000000000      1.194500000000000
C       5.743500000000000      0.317100000000000     -0.174400000000000
C       4.604600000000000     -2.219900000000000      0.460900000000000
C       6.106100000000000     -0.968900000000000     -0.924600000000000
C       3.595700000000000     -2.639200000000000     -0.607500000000000
C       7.565300000000000     -0.948800000000000     -1.363200000000000
H      -2.199900000000000     -0.237000000000000     -1.171600000000000
H      -4.210300000000000     -0.336300000000000      1.263100000000000
H      -2.138600000000000      2.810700000000000     -1.104400000000000
H      -2.252300000000000      1.781800000000000     -2.529900000000000
H      -2.203200000000000     -0.198600000000000      1.331800000000000
H      -2.138300000000000      1.564400000000000      1.320200000000000
H      -0.013800000000000      2.682700000000000      0.327300000000000
H      -0.073800000000000      0.842000000000000     -2.098900000000000
H       0.015100000000000      2.600500000000000     -2.115700000000000
H       0.009800000000000      0.629800000000000      1.730300000000000
H      -0.048200000000000     -0.381000000000000      0.286900000000000
H      -4.542300000000000     -1.767300000000000     -1.439300000000000
H      -3.119100000000000     -1.855900000000000     -0.400500000000000
H      -6.391900000000000      0.683100000000000      0.904800000000000
H      -6.615800000000000     -0.195200000000000     -0.606500000000000
H      -5.458200000000000      2.345000000000000     -0.004700000000000
H      -4.185100000000000      2.131700000000000      1.183800000000000
H      -3.909400000000000      3.018000000000000     -0.321900000000000
H      -4.368300000000000      1.710100000000000     -2.530800000000000
H      -5.698300000000000      0.747500000000000     -2.027900000000000
H      -4.218100000000000     -0.034200000000000     -2.603700000000000
H       2.012400000000000      0.669500000000000     -0.752500000000000
H       2.164200000000000      2.417900000000000     -0.835900000000000
H      -4.565200000000000     -3.808700000000000     -0.156100000000000
H      -4.357700000000000     -2.931500000000000      1.357400000000000
H      -6.372300000000000     -1.377900000000000      2.162500000000000
H      -7.804000000000000     -1.311100000000000      1.139000000000000
H      -6.782800000000000     -2.821800000000000     -0.500600000000000
H      -6.713100000000000     -3.559700000000000      1.097900000000000
H       2.096000000000000      0.781800000000000      1.764800000000000
H       4.470500000000000      1.518700000000000      1.999000000000000
H       4.347100000000000      2.333000000000000      0.448200000000000
H       2.397500000000000      3.788600000000000      1.338400000000000
H       2.732600000000000      2.941900000000000      2.857100000000000
H       1.097000000000000      2.959100000000000      2.216100000000000
H       3.189500000000000     -1.039300000000000      1.556600000000000
H       4.866200000000000     -0.816100000000000      2.073200000000000
H       6.431400000000000      0.469100000000000      0.668400000000000
H       5.854800000000000      1.168600000000000     -0.856600000000000
H       4.650200000000000     -3.029000000000000      1.199700000000000
H       5.484700000000000     -1.080300000000000     -1.821100000000000
H       2.625600000000000     -2.868400000000000     -0.155100000000000
H       3.952500000000000     -3.527800000000000     -1.138900000000000
H       3.437500000000000     -1.860600000000000     -1.359900000000000
H       7.770400000000000     -0.102600000000000     -2.026000000000000
H       7.816800000000000     -1.874900000000000     -1.891300000000000
H       8.235099999999999     -0.889200000000000     -0.498100000000000
