75

N       0.438700000000000     -0.777100000000000      0.311800000000000
N       1.233400000000000      1.423500000000000     -0.224700000000000
C       1.375800000000000     -0.003200000000000     -0.546400000000000
C      -0.955300000000000     -0.490100000000000     -0.073400000000000
C       2.884300000000000     -0.328100000000000     -0.406900000000000
C      -1.810300000000000     -0.599500000000000      1.202800000000000
C      -1.346500000000000     -1.481800000000000     -1.186500000000000
C       0.635600000000000     -2.236600000000000      0.334100000000000
C       3.344500000000000     -1.512000000000000     -1.263400000000000
C       1.643800000000000     -2.690400000000000      1.402300000000000
C       1.939100000000000      2.221400000000000     -1.238100000000000
C       1.704000000000000      1.657200000000000      1.148000000000000
C      -3.122500000000000      0.194900000000000      1.167700000000000
C      -2.657200000000000     -1.166200000000000     -1.914100000000000
C       4.434600000000000     -2.364300000000000     -0.623200000000000
C       2.745100000000000     -3.632200000000000      0.893200000000000
C       4.118600000000000     -2.966600000000000      0.748500000000000
C      -4.377700000000000     -0.634700000000000      1.446400000000000
C      -3.721100000000000     -2.255600000000000     -1.771500000000000
C       1.496000000000000      3.681300000000000     -1.379700000000000
C       1.267200000000000      2.962500000000000      1.824800000000000
C      -5.014600000000000     -1.276200000000000      0.211400000000000
C      -4.254100000000000     -2.476800000000000     -0.355500000000000
C       0.013800000000000      3.890200000000000     -1.692900000000000
C      -0.243300000000000      3.214800000000000      1.846000000000000
C      -0.997200000000000      3.495800000000000     -0.613000000000000
C      -0.774600000000000      4.149900000000000      0.752300000000000
H       1.097600000000000     -0.164500000000000     -1.595700000000000
H      -1.061900000000000      0.514500000000000     -0.467800000000000
H       3.126100000000000     -0.502100000000000      0.644900000000000
H       3.562900000000000      0.477100000000000     -0.694200000000000
H      -1.992900000000000     -1.644700000000000      1.471300000000000
H      -1.231100000000000     -0.189500000000000      2.043300000000000
H      -0.576600000000000     -1.481900000000000     -1.969700000000000
H      -1.431700000000000     -2.516900000000000     -0.844900000000000
H      -0.271400000000000     -2.741600000000000      0.688500000000000
H       0.847800000000000     -2.668500000000000     -0.646400000000000
H       2.521000000000000     -2.156000000000000     -1.570900000000000
H       3.735900000000000     -1.113900000000000     -2.209800000000000
H       1.077700000000000     -3.243800000000000      2.166500000000000
H       2.067500000000000     -1.845200000000000      1.955500000000000
H       1.801300000000000      1.772300000000000     -2.231200000000000
H       3.019100000000000      2.267600000000000     -1.062100000000000
H       2.800100000000000      1.634500000000000      1.206900000000000
H       1.354100000000000      0.867000000000000      1.824400000000000
H      -3.238200000000000      0.781300000000000      0.251900000000000
H      -3.058600000000000      0.942700000000000      1.970700000000000
H      -2.432400000000000     -1.083400000000000     -2.986400000000000
H      -3.058400000000000     -0.188900000000000     -1.637800000000000
H       5.353900000000000     -1.771300000000000     -0.537900000000000
H       4.668400000000000     -3.184000000000000     -1.314900000000000
H       2.454300000000000     -4.151100000000000     -0.026700000000000
H       2.860800000000000     -4.417700000000000      1.652700000000000
H       4.263600000000000     -2.215400000000000      1.533500000000000
H       4.884600000000000     -3.730200000000000      0.940400000000000
H      -5.128300000000000      0.045100000000000      1.871400000000000
H      -4.185700000000000     -1.389800000000000      2.217900000000000
H      -3.314200000000000     -3.204000000000000     -2.144900000000000
H      -4.562200000000000     -2.008300000000000     -2.431700000000000
H       2.064300000000000      4.107400000000000     -2.218400000000000
H       1.793300000000000      4.281300000000000     -0.519400000000000
H       1.811000000000000      3.826400000000000      1.437500000000000
H       1.594200000000000      2.883600000000000      2.871700000000000
H      -5.196000000000000     -0.514600000000000     -0.555900000000000
H      -6.008900000000000     -1.630300000000000      0.515200000000000
H      -3.458600000000000     -2.811000000000000      0.315400000000000
H      -4.956000000000000     -3.319900000000000     -0.410400000000000
H      -0.131300000000000      4.954500000000000     -1.920400000000000
H      -0.236100000000000      3.350200000000000     -2.614900000000000
H      -0.801000000000000      2.272800000000000      1.857600000000000
H      -0.467900000000000      3.704200000000000      2.803600000000000
H      -1.092300000000000      2.422100000000000     -0.526100000000000
H      -1.978000000000000      3.829000000000000     -0.980400000000000
H      -0.153400000000000      5.049200000000000      0.672900000000000
H      -1.756300000000000      4.500700000000000      1.099600000000000
