75

N       1.442700000000000     -0.216000000000000     -0.212000000000000
N      -0.643000000000000      0.869000000000000     -0.002000000000000
C      -0.002500000000000     -0.438300000000000     -0.135700000000000
C      -0.264800000000000     -1.326300000000000      1.108100000000000
C      -0.389900000000000     -1.107800000000000     -1.476900000000000
C      -1.709600000000000     -1.408700000000000      1.629500000000000
C      -1.885000000000000     -1.326000000000000     -1.746700000000000
C       2.170300000000000     -1.443500000000000      0.129300000000000
C       1.822900000000000      0.339700000000000     -1.514500000000000
C      -0.103800000000000      1.546800000000000      1.184100000000000
C      -0.465600000000000      1.621800000000000     -1.251200000000000
C      -2.272700000000000     -2.829100000000000      1.726600000000000
C      -2.264000000000000     -2.796700000000000     -1.931100000000000
C       2.742900000000000     -1.335000000000000      1.543500000000000
C       3.061800000000000      1.246100000000000     -1.432400000000000
C      -0.914400000000000      2.722600000000000      1.743600000000000
C      -1.463800000000000      2.756700000000000     -1.502200000000000
C      -2.992200000000000     -3.323500000000000      0.469300000000000
C      -2.072900000000000     -3.684000000000000     -0.699300000000000
C       3.750300000000000     -0.194800000000000      1.731100000000000
C       4.421200000000000      0.538300000000000     -1.448500000000000
C      -2.380900000000000      2.414500000000000      2.060000000000000
C      -2.936900000000000      2.346200000000000     -1.508100000000000
C       5.029300000000000     -0.365700000000000      0.907000000000000
C       5.252500000000000      0.698300000000000     -0.171000000000000
C      -3.393000000000000      2.833500000000000      0.986400000000000
C      -3.539000000000000      1.861600000000000     -0.186600000000000
H       0.050000000000000     -2.359600000000000      0.952000000000000
H       0.272200000000000     -0.980200000000000      1.984800000000000
H      -0.006600000000000     -0.705800000000000     -2.416600000000000
H       0.081500000000000     -2.100800000000000     -1.487600000000000
H      -2.404800000000000     -0.775900000000000      1.085000000000000
H      -1.706000000000000     -1.005600000000000      2.652300000000000
H      -2.146400000000000     -0.803400000000000     -2.676600000000000
H      -2.520200000000000     -0.880000000000000     -0.986300000000000
H       1.654000000000000     -2.392500000000000     -0.038900000000000
H       3.031300000000000     -1.574600000000000     -0.531800000000000
H       2.131600000000000     -0.513900000000000     -2.143100000000000
H       1.190600000000000      0.818600000000000     -2.246700000000000
H      -0.022500000000000      0.889800000000000      2.050300000000000
H       0.913700000000000      1.920200000000000      1.006300000000000
H       0.472500000000000      2.186500000000000     -1.243000000000000
H      -0.639000000000000      1.062100000000000     -2.167000000000000
H      -3.018700000000000     -2.826000000000000      2.532900000000000
H      -1.501700000000000     -3.543300000000000      2.038900000000000
H      -1.676200000000000     -3.214400000000000     -2.758400000000000
H      -3.313200000000000     -2.849700000000000     -2.248500000000000
H       2.017200000000000     -1.263900000000000      2.348500000000000
H       3.268000000000000     -2.278800000000000      1.748800000000000
H       3.035000000000000      1.897600000000000     -2.318100000000000
H       2.973300000000000      1.933700000000000     -0.582900000000000
H      -0.432300000000000      3.000000000000000      2.692400000000000
H      -0.818600000000000      3.616600000000000      1.124200000000000
H      -1.309600000000000      3.592700000000000     -0.819200000000000
H      -1.240300000000000      3.176500000000000     -2.493900000000000
H      -3.762600000000000     -2.603600000000000      0.169000000000000
H      -3.535800000000000     -4.234600000000000      0.753500000000000
H      -1.023800000000000     -3.726400000000000     -0.396400000000000
H      -2.320500000000000     -4.707900000000000     -1.010800000000000
H       3.279600000000000      0.777500000000000      1.553000000000000
H       4.035700000000000     -0.193200000000000      2.791700000000000
H       4.358900000000000     -0.509200000000000     -1.756500000000000
H       5.004600000000000      1.022500000000000     -2.245200000000000
H      -2.518200000000000      1.365200000000000      2.339800000000000
H      -2.634900000000000      2.992900000000000      2.959200000000000
H      -3.520200000000000      3.213000000000000     -1.846000000000000
H      -3.092200000000000      1.570400000000000     -2.267800000000000
H       5.874500000000000     -0.285600000000000      1.604200000000000
H       5.106500000000000     -1.368700000000000      0.472000000000000
H       6.307900000000000      0.623900000000000     -0.467100000000000
H       5.133000000000000      1.703600000000000      0.250000000000000
H      -4.370500000000000      2.876300000000000      1.486400000000000
H      -3.195500000000000      3.855100000000000      0.642300000000000
H      -4.613900000000000      1.729200000000000     -0.373000000000000
H      -3.184300000000000      0.870900000000000      0.078800000000000
