75

N       0.303100000000000     -0.378700000000000      0.000000000000000
N      -8.417999999999999      0.209300000000000      0.415000000000000
C       2.604100000000000     -0.459100000000000     -0.413500000000000
C       5.541700000000000      0.261300000000000     -0.119700000000000
C       3.727400000000000     -1.316800000000000     -1.020200000000000
C       3.141900000000000      0.325100000000000      0.810600000000000
C       4.987400000000000     -0.509400000000000     -1.336500000000000
C       4.422300000000000      1.113300000000000      0.514500000000000
C       1.965200000000000      0.497800000000000     -1.447200000000000
C       1.407300000000000     -1.338300000000000     -0.009800000000000
C       0.453100000000000      0.389600000000000     -1.235500000000000
C       6.674200000000000      1.192900000000000     -0.591600000000000
C       6.133200000000000     -0.712700000000000      0.918000000000000
C      -0.997400000000000     -1.022600000000000      0.103200000000000
C       7.277700000000000      1.946000000000000      0.582700000000000
C       7.292900000000000     -1.494500000000000      0.323300000000000
C      -2.109200000000000      0.025300000000000      0.111600000000000
C       8.379899999999999      2.882400000000000      0.113900000000000
C       7.861700000000000     -2.471400000000000      1.339900000000000
C      -3.486500000000000     -0.630600000000000      0.241400000000000
C      -4.603300000000000      0.415400000000000      0.213700000000000
C      -6.003800000000000     -0.185300000000000      0.371500000000000
C      -7.120900000000000      0.852300000000000      0.265900000000000
C      -8.865500000000001     -0.437900000000000     -0.817800000000000
C      -9.477399999999999      1.160400000000000      0.750600000000000
C     -10.343999999999999     -0.683300000000000     -0.556100000000000
C     -10.747000000000000      0.369400000000000      0.472000000000000
H       3.376400000000000     -1.794500000000000     -1.944100000000000
H       3.976800000000000     -2.139100000000000     -0.338800000000000
H       3.339500000000000     -0.375100000000000      1.632200000000000
H       2.382900000000000      1.022200000000000      1.188000000000000
H       5.731200000000000     -1.156600000000000     -1.808900000000000
H       4.727900000000000      0.219100000000000     -2.117800000000000
H       4.177700000000000      1.956100000000000     -0.143500000000000
H       4.746900000000000      1.549800000000000      1.465800000000000
H       2.296600000000000      1.533000000000000     -1.318700000000000
H       2.206600000000000      0.204200000000000     -2.475600000000000
H       1.547300000000000     -1.805400000000000      0.971100000000000
H       1.237800000000000     -2.132800000000000     -0.749200000000000
H       0.010600000000000      1.387600000000000     -1.152800000000000
H       0.006400000000000     -0.120500000000000     -2.098600000000000
H       7.443800000000000      0.666400000000000     -1.166000000000000
H       6.260300000000000      1.926900000000000     -1.297800000000000
H       6.434400000000000     -0.206200000000000      1.841300000000000
H       5.368800000000000     -1.427800000000000      1.244600000000000
H      -1.158900000000000     -1.731300000000000     -0.719500000000000
H      -1.044500000000000     -1.595900000000000      1.037400000000000
H       6.536700000000000      2.559100000000000      1.102500000000000
H       7.735300000000000      1.278700000000000      1.317000000000000
H       6.994300000000000     -2.084900000000000     -0.545900000000000
H       8.122299999999999     -0.849700000000000      0.022700000000000
H      -2.103300000000000      0.612500000000000     -0.813900000000000
H      -1.957600000000000      0.725500000000000      0.942800000000000
H       9.186400000000001      2.326700000000000     -0.375400000000000
H       8.808600000000000      3.421200000000000      0.964900000000000
H       7.993100000000000      3.622400000000000     -0.594200000000000
H       8.231700000000000     -1.946000000000000      2.226200000000000
H       8.697100000000001     -3.029600000000000      0.904900000000000
H       7.103200000000000     -3.193400000000000      1.659500000000000
H      -3.538000000000000     -1.197000000000000      1.179100000000000
H      -3.635700000000000     -1.344800000000000     -0.577500000000000
H      -4.555100000000000      0.966500000000000     -0.733800000000000
H      -4.437200000000000      1.146900000000000      1.014200000000000
H      -6.132400000000000     -0.954200000000000     -0.400100000000000
H      -6.065400000000000     -0.697200000000000      1.340600000000000
H      -7.045900000000000      1.417300000000000     -0.671800000000000
H      -6.973600000000000      1.574400000000000      1.079800000000000
H      -8.751300000000001      0.217800000000000     -1.690700000000000
H      -8.341699999999999     -1.377700000000000     -1.016800000000000
H      -9.426900000000000      1.485400000000000      1.794600000000000
H      -9.443400000000000      2.047700000000000      0.105300000000000
H     -10.505400000000000     -1.685800000000000     -0.142300000000000
H     -10.933999999999999     -0.600000000000000     -1.474300000000000
H     -11.548100000000000      1.015200000000000      0.098200000000000
H     -11.108300000000000     -0.121500000000000      1.383200000000000
