75

N      -1.091700000000000      0.776100000000000      0.307600000000000
N      -0.235000000000000     -1.928500000000000      0.712200000000000
C       1.822300000000000      0.139200000000000      0.029100000000000
C       1.086700000000000      0.110500000000000      1.396800000000000
C       0.757400000000000     -0.350600000000000     -0.990400000000000
C      -0.132800000000000      1.073200000000000      1.380600000000000
C      -0.462200000000000      0.611600000000000     -1.009800000000000
C       0.630000000000000     -1.334300000000000      1.740500000000000
C       0.299900000000000     -1.795800000000000     -0.649800000000000
C       2.346600000000000      1.554200000000000     -0.316400000000000
C       3.080500000000000     -0.762800000000000      0.029900000000000
C      -2.164900000000000      1.764400000000000      0.264900000000000
C       3.294500000000000      2.048800000000000      0.762000000000000
C       3.752300000000000     -0.740800000000000     -1.331800000000000
C      -0.555700000000000     -3.317700000000000      1.024800000000000
C      -3.372400000000000      1.234900000000000     -0.506600000000000
C       3.788800000000000      3.456600000000000      0.430500000000000
C       4.978500000000000     -1.653300000000000     -1.334500000000000
C      -3.939500000000000     -0.020600000000000      0.169600000000000
C      -4.450300000000000      2.319400000000000     -0.637100000000000
C      -1.436300000000000     -3.916300000000000     -0.068400000000000
C      -1.246100000000000     -3.386200000000000      2.383400000000000
C      -5.180700000000000     -0.538500000000000     -0.553600000000000
C      -5.690600000000000      1.797700000000000     -1.358900000000000
C      -6.246200000000000      0.544700000000000     -0.689000000000000
C       4.714600000000000      3.990900000000000      1.511600000000000
C       5.652400000000000     -1.676800000000000     -2.697200000000000
H       1.753000000000000      0.412000000000000      2.211800000000000
H       1.158200000000000     -0.348800000000000     -2.009700000000000
H       0.211400000000000      2.112100000000000      1.316700000000000
H      -0.647000000000000      0.987700000000000      2.346900000000000
H      -1.179900000000000      0.188400000000000     -1.721000000000000
H      -0.164200000000000      1.580500000000000     -1.427200000000000
H       1.506100000000000     -1.965400000000000      1.931200000000000
H       0.092600000000000     -1.258400000000000      2.692700000000000
H      -0.473400000000000     -2.038700000000000     -1.387800000000000
H       1.123200000000000     -2.498800000000000     -0.821900000000000
H       2.786200000000000      1.625100000000000     -1.314500000000000
H       1.523200000000000      2.273800000000000     -0.365300000000000
H       3.783800000000000     -0.507900000000000      0.827900000000000
H       2.821800000000000     -1.803500000000000      0.248800000000000
H      -2.492700000000000      2.002400000000000      1.286100000000000
H      -1.809700000000000      2.707600000000000     -0.170600000000000
H       4.184800000000000      1.423500000000000      0.858000000000000
H       2.809700000000000      2.096600000000000      1.740600000000000
H       4.120000000000000      0.249900000000000     -1.606100000000000
H       3.080300000000000     -1.083700000000000     -2.123100000000000
H       0.359900000000000     -3.922400000000000      1.079200000000000
H      -3.083300000000000      0.973100000000000     -1.531300000000000
H       4.321500000000000      3.449900000000000     -0.527800000000000
H       2.936600000000000      4.138000000000000      0.323600000000000
H       5.700100000000000     -1.313100000000000     -0.582300000000000
H       4.685900000000000     -2.675000000000000     -1.065200000000000
H      -3.194500000000000     -0.823600000000000      0.189500000000000
H      -4.198100000000000      0.199800000000000      1.213300000000000
H      -4.738600000000000      2.681400000000000      0.358100000000000
H      -4.050500000000000      3.181300000000000     -1.184800000000000
H      -2.300900000000000     -3.280600000000000     -0.291300000000000
H      -0.885500000000000     -4.105900000000000     -0.995600000000000
H      -1.828200000000000     -4.889600000000000      0.250200000000000
H      -2.076800000000000     -2.674400000000000      2.454500000000000
H      -0.556500000000000     -3.207500000000000      3.214600000000000
H      -1.663600000000000     -4.386400000000000      2.549500000000000
H      -4.897900000000000     -0.899800000000000     -1.550100000000000
H      -5.593600000000000     -1.395200000000000     -0.009000000000000
H      -6.460500000000000      2.577200000000000     -1.378100000000000
H      -5.438200000000000      1.572600000000000     -2.402400000000000
H      -7.091900000000000      0.159900000000000     -1.269900000000000
H      -6.632100000000000      0.803000000000000      0.304800000000000
H       4.201900000000000      4.043900000000000      2.477300000000000
H       5.056200000000000      4.998200000000000      1.253500000000000
H       5.596500000000000      3.352300000000000      1.624800000000000
H       4.967900000000000     -2.045500000000000     -3.467800000000000
H       6.525900000000000     -2.335900000000000     -2.676200000000000
H       5.989400000000000     -0.676300000000000     -2.986400000000000
