75

N      -0.291700000000000      1.710800000000000     -0.451100000000000
N       0.023100000000000      1.019400000000000      1.635700000000000
C       1.842700000000000      1.151200000000000     -1.600400000000000
C       2.373800000000000      0.096100000000000      1.515000000000000
C       0.970400000000000      1.188100000000000     -0.416500000000000
C       1.141800000000000      0.767900000000000      0.881500000000000
C      -2.184400000000000      2.057400000000000      1.111600000000000
C      -0.821100000000000      1.587500000000000      0.803300000000000
C       2.692900000000000     -1.268800000000000      0.826600000000000
C       1.536400000000000      2.338000000000000     -2.617300000000000
C       1.638500000000000     -0.171700000000000     -2.463200000000000
C      -3.305900000000000      1.371100000000000      0.224000000000000
C       3.395300000000000      1.231800000000000     -1.322700000000000
C       3.646900000000000      0.976100000000000      1.492400000000000
C       2.063700000000000     -0.180800000000000      3.007700000000000
C       1.587800000000000     -2.329900000000000      0.937700000000000
C      -2.648400000000000      1.896500000000000      2.608200000000000
C      -2.311000000000000      3.599900000000000      0.840300000000000
C      -3.331400000000000     -0.161700000000000      0.321000000000000
C       1.714700000000000      3.737100000000000     -2.032900000000000
C       0.223700000000000     -0.366100000000000     -3.002600000000000
C       2.018400000000000     -3.643200000000000      0.277800000000000
C      -4.366700000000000     -0.756100000000000     -0.638300000000000
C       0.907000000000000     -4.690300000000000      0.346800000000000
C      -4.427900000000000     -2.278500000000000     -0.516100000000000
C       1.342000000000000     -6.006300000000000     -0.277900000000000
C      -5.430800000000000     -2.875600000000000     -1.490400000000000
H       2.961000000000000     -1.172600000000000     -0.216400000000000
H       3.592000000000000     -1.682900000000000      1.306600000000000
H      -0.763700000000000      2.103300000000000     -1.254300000000000
H       2.178000000000000      2.247100000000000     -3.503600000000000
H       0.506800000000000      2.284800000000000     -2.986200000000000
H       2.334700000000000     -0.170100000000000     -3.312000000000000
H       1.876200000000000     -1.058800000000000     -1.874900000000000
H      -4.292400000000000      1.767600000000000      0.498300000000000
H      -3.144900000000000      1.648900000000000     -0.826600000000000
H       3.848300000000000      0.301200000000000     -1.006000000000000
H       3.909400000000000      1.430500000000000     -2.275100000000000
H       3.657200000000000      2.084600000000000     -0.698100000000000
H       4.133400000000000      0.959000000000000      2.478400000000000
H       4.441100000000000      0.618500000000000      0.836700000000000
H       3.418300000000000      2.032600000000000      1.322900000000000
H       2.864600000000000     -0.761200000000000      3.481100000000000
H       1.127500000000000     -0.730100000000000      3.155400000000000
H       1.964400000000000      0.758200000000000      3.567500000000000
H       1.352600000000000     -2.538300000000000      1.986100000000000
H       0.670500000000000     -1.967700000000000      0.459800000000000
H      -3.679300000000000      2.236500000000000      2.754900000000000
H      -2.579700000000000      0.852000000000000      2.929800000000000
H      -1.999400000000000      2.477800000000000      3.273900000000000
H      -3.312700000000000      3.970100000000000      1.086600000000000
H      -2.120900000000000      3.837300000000000     -0.212900000000000
H      -1.584400000000000      4.160600000000000      1.440200000000000
H      -2.345800000000000     -0.576200000000000      0.081000000000000
H      -3.572600000000000     -0.467500000000000      1.344700000000000
H       2.753000000000000      3.921000000000000     -1.742900000000000
H       1.452400000000000      4.485900000000000     -2.788200000000000
H       1.078500000000000      3.915600000000000     -1.162700000000000
H       0.168400000000000     -1.328300000000000     -3.524400000000000
H      -0.058800000000000      0.398200000000000     -3.730000000000000
H      -0.522700000000000     -0.395500000000000     -2.204600000000000
H       2.282300000000000     -3.460800000000000     -0.771000000000000
H       2.917600000000000     -4.026100000000000      0.775700000000000
H      -4.112200000000000     -0.479200000000000     -1.668700000000000
H      -5.354900000000000     -0.331500000000000     -0.423500000000000
H       0.015200000000000     -4.321300000000000     -0.173200000000000
H       0.624200000000000     -4.865600000000000      1.391300000000000
H      -4.706800000000000     -2.559400000000000      0.506100000000000
H      -3.438400000000000     -2.707900000000000     -0.712200000000000
H       2.212600000000000     -6.418700000000000      0.242100000000000
H       1.602900000000000     -5.872400000000000     -1.332500000000000
H       0.532000000000000     -6.740000000000000     -0.218700000000000
H      -5.160400000000000     -2.641000000000000     -2.524900000000000
H      -6.437800000000000     -2.489800000000000     -1.302200000000000
H      -5.459000000000000     -3.964700000000000     -1.385300000000000
