75

N       1.837500000000000      2.067900000000000      0.199600000000000
N       6.553700000000000     -2.588900000000000     -0.222600000000000
C       3.072400000000000      0.055900000000000     -0.590900000000000
C       4.971500000000000     -0.997100000000000      0.962900000000000
C       3.942500000000000      0.135200000000000      0.680400000000000
C       5.702700000000000     -1.400200000000000     -0.364800000000000
C       3.895200000000000     -0.417300000000000     -1.808000000000000
C       4.742300000000000     -1.652300000000000     -1.532900000000000
C       2.504900000000000      1.467800000000000     -0.958600000000000
C       1.867700000000000     -0.889700000000000     -0.363800000000000
C       3.789300000000000      1.205300000000000      1.491600000000000
C       6.056300000000000     -0.556000000000000      1.990000000000000
C       4.244000000000000     -2.200800000000000      1.607900000000000
C       2.818400000000000      2.330200000000000      1.256700000000000
C       1.128900000000000      3.291400000000000     -0.168400000000000
C      -0.203700000000000      2.994900000000000     -0.858500000000000
C       7.632200000000000     -2.562100000000000     -1.195000000000000
C      -1.160800000000000      2.172500000000000      0.009800000000000
C      -2.504500000000000      1.962100000000000     -0.693500000000000
C      -3.451000000000000      1.116800000000000      0.161700000000000
C      -4.801500000000000      0.848400000000000     -0.508700000000000
C      -5.775700000000000      0.065500000000000      0.375900000000000
C      -7.129500000000000     -0.110300000000000     -0.317200000000000
C      -8.139799999999999     -0.907100000000000      0.513300000000000
C      -9.467499999999999     -1.146200000000000     -0.209100000000000
C     -10.409400000000000     -2.006100000000000      0.634900000000000
C     -11.716100000000001     -2.279700000000000     -0.092500000000000
H       6.333600000000000     -0.539200000000000     -0.634400000000000
H       3.229000000000000     -0.621200000000000     -2.656300000000000
H       4.568500000000000      0.386300000000000     -2.137700000000000
H       5.288700000000000     -1.879000000000000     -2.455400000000000
H       4.101000000000000     -2.520200000000000     -1.342700000000000
H       1.810600000000000      1.350500000000000     -1.799100000000000
H       3.310500000000000      2.126600000000000     -1.314500000000000
H       1.135700000000000     -0.792200000000000     -1.174700000000000
H       2.153100000000000     -1.942600000000000     -0.338900000000000
H       1.348100000000000     -0.668100000000000      0.575500000000000
H       4.385600000000000      1.318200000000000      2.390500000000000
H       6.820800000000000     -1.329900000000000      2.124500000000000
H       6.571200000000000      0.354000000000000      1.660500000000000
H       5.629700000000000     -0.372800000000000      2.982900000000000
H       4.957100000000000     -2.916100000000000      2.035000000000000
H       3.589300000000000     -1.876400000000000      2.425600000000000
H       3.635200000000000     -2.761400000000000      0.896700000000000
H       2.281000000000000      2.514800000000000      2.194700000000000
H       3.405900000000000      3.230700000000000      1.033000000000000
H       6.003700000000000     -3.440100000000000     -0.328800000000000
H       0.899300000000000      3.873400000000000      0.734500000000000
H       1.746700000000000      3.939100000000000     -0.803700000000000
H      -0.680100000000000      3.953900000000000     -1.099400000000000
H      -0.044700000000000      2.488400000000000     -1.817100000000000
H       8.252400000000000     -1.665900000000000     -1.086800000000000
H       7.282800000000000     -2.634600000000000     -2.228300000000000
H       8.287599999999999     -3.421600000000000     -1.018800000000000
H      -0.718400000000000      1.195300000000000      0.235700000000000
H      -1.323400000000000      2.684700000000000      0.965800000000000
H      -2.968700000000000      2.933100000000000     -0.904300000000000
H      -2.341800000000000      1.464400000000000     -1.657100000000000
H      -2.973300000000000      0.157100000000000      0.394800000000000
H      -3.620500000000000      1.626300000000000      1.118500000000000
H      -5.257400000000000      1.808200000000000     -0.782300000000000
H      -4.636200000000000      0.299000000000000     -1.443600000000000
H      -5.348800000000000     -0.916600000000000      0.611400000000000
H      -5.918300000000000      0.593900000000000      1.326000000000000
H      -6.976800000000000     -0.619300000000000     -1.277200000000000
H      -7.553400000000000      0.875400000000000     -0.545700000000000
H      -8.327999999999999     -0.378200000000000      1.455800000000000
H      -7.695300000000000     -1.875000000000000      0.777300000000000
H      -9.942299999999999     -0.183500000000000     -0.433200000000000
H      -9.276899999999999     -1.643900000000000     -1.167700000000000
H     -10.623200000000001     -1.501500000000000      1.584300000000000
H      -9.927700000000000     -2.961000000000000      0.875900000000000
H     -12.239500000000000     -1.346300000000000     -0.322700000000000
H     -11.538300000000000     -2.814700000000000     -1.030900000000000
H     -12.374700000000001     -2.894200000000000      0.529300000000000
