75

N      -0.364400000000000     -1.062000000000000     -1.241800000000000
N       1.034300000000000     -0.716700000000000      0.448200000000000
C      -1.246900000000000      1.204000000000000     -1.767100000000000
C       0.836500000000000      1.783700000000000      0.767400000000000
C      -0.403000000000000      0.281000000000000     -0.992600000000000
C       0.468200000000000      0.469900000000000      0.054300000000000
C       0.788800000000000     -3.067400000000000     -0.351300000000000
C      -2.336000000000000      1.957300000000000     -0.890900000000000
C       0.511700000000000     -1.619000000000000     -0.352300000000000
C       2.284100000000000      1.726300000000000      1.350700000000000
C      -0.488400000000000      2.323600000000000     -2.577700000000000
C      -2.055100000000000      0.425800000000000     -2.869000000000000
C       0.709100000000000      3.039000000000000     -0.129000000000000
C      -0.147500000000000      1.990300000000000      1.946600000000000
C      -0.503600000000000     -3.958100000000000     -0.121700000000000
C      -3.366700000000000      1.024900000000000     -0.236800000000000
C       3.391800000000000      1.452700000000000      0.322300000000000
C       1.857300000000000     -3.565100000000000      0.693600000000000
C       1.376500000000000     -3.518000000000000     -1.737000000000000
C      -4.442800000000000      1.826600000000000      0.501400000000000
C       4.762100000000000      1.364800000000000      1.000500000000000
C      -1.254500000000000     -3.648500000000000      1.180800000000000
C      -5.447700000000000      0.904200000000000      1.191000000000000
C       5.874700000000000      1.135400000000000     -0.022200000000000
C      -2.534700000000000     -4.465400000000000      1.285400000000000
C      -6.536700000000000      1.695900000000000      1.897300000000000
C       7.233000000000000      1.014500000000000      0.650100000000000
H      -1.921200000000000      2.581700000000000     -0.111100000000000
H      -2.882400000000000      2.648500000000000     -1.549200000000000
H       2.506900000000000      2.665900000000000      1.874200000000000
H       2.330100000000000      0.940600000000000      2.117700000000000
H      -0.874600000000000     -1.569500000000000     -1.951500000000000
H       0.561900000000000      2.061100000000000     -2.739700000000000
H      -0.600800000000000      3.335300000000000     -2.187500000000000
H      -0.909100000000000      2.411100000000000     -3.589400000000000
H      -2.624200000000000     -0.420900000000000     -2.471500000000000
H      -2.769200000000000      1.083600000000000     -3.379500000000000
H      -1.379000000000000      0.023800000000000     -3.634900000000000
H       1.208100000000000      3.873000000000000      0.389300000000000
H       1.280300000000000      2.943600000000000     -1.050900000000000
H      -0.287600000000000      3.433900000000000     -0.257400000000000
H       0.016200000000000      2.957600000000000      2.435300000000000
H       0.000300000000000      1.213500000000000      2.707500000000000
H      -1.197100000000000      1.930100000000000      1.660000000000000
H      -0.230800000000000     -5.021600000000000     -0.138000000000000
H      -1.192800000000000     -3.805600000000000     -0.963600000000000
H      -3.870700000000000      0.405700000000000     -0.984100000000000
H      -2.866400000000000      0.348700000000000      0.465900000000000
H       3.413000000000000      2.258000000000000     -0.420500000000000
H       3.205500000000000      0.520600000000000     -0.220200000000000
H       1.988600000000000     -4.652000000000000      0.657300000000000
H       2.829400000000000     -3.097100000000000      0.498100000000000
H       1.569200000000000     -3.285600000000000      1.712400000000000
H       1.611200000000000     -4.588500000000000     -1.744500000000000
H       2.296300000000000     -2.967000000000000     -1.966200000000000
H       0.668200000000000     -3.329800000000000     -2.552100000000000
H      -3.971100000000000      2.476000000000000      1.249000000000000
H      -4.966800000000000      2.478000000000000     -0.208700000000000
H       4.959700000000000      2.290400000000000      1.554800000000000
H       4.757400000000000      0.545400000000000      1.729600000000000
H      -0.622900000000000     -3.872500000000000      2.046500000000000
H      -1.515500000000000     -2.586100000000000      1.232700000000000
H      -4.931100000000000      0.270300000000000      1.921000000000000
H      -5.910400000000000      0.238600000000000      0.453000000000000
H       5.674200000000000      0.220500000000000     -0.591900000000000
H       5.899100000000000      1.964900000000000     -0.738400000000000
H      -3.213600000000000     -4.238400000000000      0.457200000000000
H      -2.317600000000000     -5.538100000000000      1.269100000000000
H      -3.053700000000000     -4.237600000000000      2.221700000000000
H      -7.094600000000000      2.315200000000000      1.187800000000000
H      -6.110700000000000      2.350500000000000      2.664400000000000
H      -7.243500000000000      1.016900000000000      2.384500000000000
H       7.251600000000000      0.171600000000000      1.348300000000000
H       7.478700000000000      1.925900000000000      1.204500000000000
H       8.013700000000000      0.851900000000000     -0.099500000000000
