75

N      -4.309500000000000      0.603200000000000     -0.298200000000000
N      -0.814800000000000     -1.998800000000000     -0.741200000000000
C      -3.148300000000000     -1.395200000000000     -0.245000000000000
C      -3.038800000000000      0.037800000000000     -0.752900000000000
C      -4.630200000000000     -1.735700000000000     -0.420500000000000
C      -2.215900000000000     -2.356900000000000     -0.962400000000000
C      -5.323600000000000     -0.393900000000000     -0.646900000000000
C       0.818200000000000     -1.606200000000000      1.122800000000000
C      -0.381400000000000     -2.423900000000000      0.587700000000000
C       0.468800000000000     -0.091900000000000      1.159000000000000
C      -4.582800000000000      1.905600000000000     -0.886900000000000
C       1.583500000000000      0.866700000000000      1.668900000000000
C       1.243700000000000     -2.103800000000000      2.527900000000000
C       1.207000000000000      2.369700000000000      1.438600000000000
C       2.955800000000000      0.516400000000000      1.070800000000000
C       0.033200000000000     -2.596800000000000     -1.772500000000000
C      -3.486000000000000      2.897500000000000     -0.509300000000000
C      -5.949700000000000      2.396700000000000     -0.421100000000000
C       1.629900000000000     -3.577400000000000      2.575700000000000
C       2.237700000000000      3.321500000000000      2.064800000000000
C      -0.177100000000000      2.718200000000000      2.003500000000000
C       3.101900000000000      0.630200000000000     -0.441200000000000
C       3.951300000000000      0.132800000000000      1.890300000000000
C       4.490000000000000      0.327300000000000     -1.036800000000000
C       4.643800000000000      0.490200000000000     -2.537100000000000
C       6.034300000000000      0.234900000000000     -3.054600000000000
C       3.659000000000000      0.831600000000000     -3.383500000000000
H      -2.954900000000000     -1.395100000000000      0.835600000000000
H      -2.943700000000000      0.069400000000000     -1.846100000000000
H      -2.177000000000000      0.537700000000000     -0.302700000000000
H      -5.012100000000000     -2.234100000000000      0.477900000000000
H      -4.806000000000000     -2.402500000000000     -1.272100000000000
H      -2.414300000000000     -3.391900000000000     -0.652900000000000
H      -2.447700000000000     -2.310700000000000     -2.035400000000000
H      -5.628500000000000     -0.322300000000000     -1.699000000000000
H      -6.216000000000000     -0.316500000000000     -0.017500000000000
H       1.667500000000000     -1.769600000000000      0.451100000000000
H      -0.145000000000000     -3.494900000000000      0.570600000000000
H      -1.181700000000000     -2.320600000000000      1.329100000000000
H       0.185300000000000      0.232300000000000      0.150200000000000
H      -0.421700000000000      0.033100000000000      1.788000000000000
H      -4.607900000000000      1.838800000000000     -1.983300000000000
H       1.632100000000000      0.728700000000000      2.758900000000000
H       0.426800000000000     -1.932400000000000      3.240100000000000
H       2.096300000000000     -1.535900000000000      2.901200000000000
H       1.167500000000000      2.576500000000000      0.362100000000000
H       1.082000000000000     -2.310800000000000     -1.644400000000000
H      -0.258900000000000     -2.233400000000000     -2.764600000000000
H      -0.028400000000000     -3.691300000000000     -1.779000000000000
H      -3.747100000000000      3.905200000000000     -0.852600000000000
H      -2.524600000000000      2.650500000000000     -0.971100000000000
H      -3.345800000000000      2.948300000000000      0.576400000000000
H      -6.123400000000000      3.423400000000000     -0.763800000000000
H      -6.770200000000000      1.792900000000000     -0.822500000000000
H      -6.026600000000000      2.400900000000000      0.672400000000000
H       1.940900000000000      4.366200000000000      1.920900000000000
H       3.224000000000000      3.202500000000000      1.606000000000000
H       2.336600000000000      3.143800000000000      3.141000000000000
H      -0.972500000000000      2.194800000000000      1.465200000000000
H      -0.381100000000000      3.790100000000000      1.903900000000000
H      -0.248700000000000      2.458000000000000      3.064800000000000
H       2.375200000000000     -3.813900000000000      1.810100000000000
H       2.061200000000000     -3.817700000000000      3.553200000000000
H       0.762800000000000     -4.229100000000000      2.437200000000000
H       2.369400000000000     -0.033200000000000     -0.914400000000000
H       2.839000000000000      1.655200000000000     -0.727100000000000
H       3.810300000000000      0.080700000000000      2.965200000000000
H       4.937800000000000     -0.129500000000000      1.527700000000000
H       4.764100000000000     -0.705700000000000     -0.785800000000000
H       5.226500000000000      0.986600000000000     -0.558700000000000
H       6.743700000000000      0.931300000000000     -2.595700000000000
H       6.103300000000000      0.358000000000000     -4.140600000000000
H       6.345800000000000     -0.787200000000000     -2.815800000000000
H       2.645500000000000      1.021800000000000     -3.050900000000000
H       3.844100000000000      0.929700000000000     -4.448600000000000
