75

N       0.772900000000000      2.844300000000000     -0.109300000000000
N       3.987000000000000     -1.124200000000000     -0.063100000000000
C      -1.361800000000000      2.009800000000000     -0.575200000000000
C      -2.930800000000000     -0.418400000000000      0.355100000000000
C      -1.017100000000000      0.575200000000000     -1.049900000000000
C      -2.853600000000000      2.086700000000000     -0.209600000000000
C      -1.445600000000000     -0.509900000000000     -0.057200000000000
C      -3.268200000000000      1.019500000000000      0.805300000000000
C      -0.998700000000000      3.028200000000000     -1.678600000000000
C      -0.460000000000000      2.469600000000000      0.585100000000000
C       0.344500000000000      3.632600000000000     -1.264800000000000
C      -3.184700000000000     -1.382300000000000      1.529700000000000
C      -3.841200000000000     -0.847500000000000     -0.812500000000000
C       1.702500000000000      3.564900000000000      0.746600000000000
C      -2.901600000000000     -2.818000000000000      1.119000000000000
C      -5.300500000000000     -0.845900000000000     -0.387000000000000
C       2.467100000000000      2.589100000000000      1.639200000000000
C      -3.130500000000000     -3.767100000000000      2.284400000000000
C      -6.200400000000000     -1.247200000000000     -1.544900000000000
C       3.273900000000000      1.592100000000000      0.804500000000000
C       4.012600000000000      0.589600000000000      1.693900000000000
C       4.845800000000000     -0.380600000000000      0.858400000000000
C       3.336800000000000     -2.244600000000000      0.631100000000000
C       4.760600000000000     -1.593700000000000     -1.221000000000000
C       2.396400000000000     -3.003600000000000     -0.306600000000000
C       3.866900000000000     -2.331500000000000     -2.219100000000000
C       3.128000000000000     -3.487000000000000     -1.553400000000000
H      -1.506700000000000      0.384000000000000     -2.013400000000000
H       0.059100000000000      0.473700000000000     -1.238700000000000
H      -3.087800000000000      3.075300000000000      0.205900000000000
H      -3.464700000000000      1.993200000000000     -1.115400000000000
H      -1.225600000000000     -1.472600000000000     -0.532700000000000
H      -0.804400000000000     -0.453000000000000      0.831000000000000
H      -2.729500000000000      1.224500000000000      1.741300000000000
H      -4.320800000000000      1.151200000000000      1.068900000000000
H      -1.747500000000000      3.826300000000000     -1.749900000000000
H      -0.929900000000000      2.557300000000000     -2.665700000000000
H      -0.902800000000000      3.331600000000000      1.102100000000000
H      -0.290100000000000      1.681100000000000      1.322900000000000
H       1.076100000000000      3.574400000000000     -2.077100000000000
H       0.199300000000000      4.689800000000000     -1.007900000000000
H      -2.510000000000000     -1.119700000000000      2.357100000000000
H      -4.189000000000000     -1.278500000000000      1.953800000000000
H      -3.728600000000000     -0.153900000000000     -1.654300000000000
H      -3.555600000000000     -1.819500000000000     -1.228900000000000
H       2.438200000000000      4.099300000000000      0.130800000000000
H       1.196800000000000      4.323700000000000      1.356600000000000
H      -1.867200000000000     -2.955800000000000      0.792600000000000
H      -3.555800000000000     -3.159400000000000      0.313100000000000
H      -5.637100000000000      0.139100000000000     -0.056400000000000
H      -5.502900000000000     -1.557700000000000      0.417000000000000
H       3.149900000000000      3.160100000000000      2.280400000000000
H       1.782500000000000      2.056300000000000      2.309400000000000
H      -4.167100000000000     -3.718900000000000      2.633500000000000
H      -2.923800000000000     -4.798500000000000      1.981000000000000
H      -2.472700000000000     -3.524100000000000      3.125200000000000
H      -5.956900000000000     -2.253100000000000     -1.902200000000000
H      -7.249000000000000     -1.245200000000000     -1.230100000000000
H      -6.098200000000000     -0.550300000000000     -2.383100000000000
H       2.603200000000000      1.051600000000000      0.127900000000000
H       3.995000000000000      2.135100000000000      0.181100000000000
H       3.301800000000000      0.056200000000000      2.334600000000000
H       4.686100000000000      1.133900000000000      2.367700000000000
H       5.578500000000000      0.218400000000000      0.301100000000000
H       5.425700000000000     -1.048400000000000      1.507900000000000
H       4.083500000000000     -2.939900000000000      1.037200000000000
H       2.737000000000000     -1.885000000000000      1.474100000000000
H       5.210300000000000     -0.739100000000000     -1.741300000000000
H       5.580100000000000     -2.251000000000000     -0.901700000000000
H       1.564900000000000     -2.350000000000000     -0.600400000000000
H       1.958900000000000     -3.859300000000000      0.220100000000000
H       4.473200000000000     -2.710100000000000     -3.049700000000000
H       3.138700000000000     -1.631000000000000     -2.647600000000000
H       3.845300000000000     -4.269500000000000     -1.276900000000000
H       2.417500000000000     -3.934600000000000     -2.256900000000000
