75

N       0.087700000000000     -0.293000000000000     -1.106400000000000
N      -0.533300000000000     -1.423700000000000      0.701300000000000
C      -1.172300000000000      1.846000000000000     -0.942400000000000
C      -2.099400000000000      0.179500000000000      1.736200000000000
C      -0.795400000000000      0.513600000000000     -0.445500000000000
C      -1.164700000000000     -0.205600000000000      0.666700000000000
C       1.140500000000000     -2.585000000000000     -0.839200000000000
C       0.213500000000000     -1.444600000000000     -0.380300000000000
C      -0.184300000000000      2.999900000000000     -0.480100000000000
C      -3.590700000000000      0.386500000000000      1.232600000000000
C       2.616400000000000     -2.094700000000000     -0.980300000000000
C      -1.154400000000000      1.878600000000000     -2.514500000000000
C      -2.623500000000000      2.339500000000000     -0.572900000000000
C      -2.175900000000000     -0.940800000000000      2.836900000000000
C      -1.727500000000000      1.479100000000000      2.547400000000000
C       1.302300000000000      2.623000000000000     -0.566500000000000
C       1.112900000000000     -3.824700000000000      0.087100000000000
C       0.662000000000000     -3.071600000000000     -2.230500000000000
C      -4.072200000000000     -0.686000000000000      0.243900000000000
C       3.233700000000000     -1.506400000000000      0.297300000000000
C       2.192700000000000      3.815200000000000     -0.208200000000000
C       4.659600000000000     -1.009800000000000      0.040800000000000
C      -5.546200000000000     -0.481100000000000     -0.113500000000000
C       5.295700000000000     -0.462200000000000      1.318200000000000
C       3.667300000000000      3.464000000000000     -0.325000000000000
C      -6.043800000000000     -1.558300000000000     -1.064100000000000
C       6.699300000000000      0.062400000000000      1.060900000000000
H      -0.391200000000000      3.281000000000000      0.556500000000000
H      -0.371800000000000      3.902600000000000     -1.076800000000000
H      -3.914200000000000      1.388000000000000      0.985200000000000
H      -4.220400000000000      0.238900000000000      2.127100000000000
H       0.576700000000000     -0.082300000000000     -1.965500000000000
H       3.243600000000000     -2.927400000000000     -1.326300000000000
H       2.669400000000000     -1.331100000000000     -1.768500000000000
H      -0.160600000000000      1.684300000000000     -2.930200000000000
H      -1.836300000000000      1.122900000000000     -2.923700000000000
H      -1.471100000000000      2.854000000000000     -2.902500000000000
H      -2.725700000000000      2.711200000000000      0.439100000000000
H      -3.381900000000000      1.633900000000000     -0.910900000000000
H      -2.837700000000000      3.244500000000000     -1.162600000000000
H      -2.866200000000000     -0.672400000000000      3.645100000000000
H      -1.191600000000000     -1.105400000000000      3.293000000000000
H      -2.505700000000000     -1.899500000000000      2.422100000000000
H      -2.490500000000000      1.702100000000000      3.302400000000000
H      -0.777300000000000      1.324200000000000      3.073800000000000
H      -1.591200000000000      2.369600000000000      1.948500000000000
H       1.553300000000000      2.284700000000000     -1.577300000000000
H       1.527700000000000      1.804100000000000      0.125700000000000
H       1.807800000000000     -4.599900000000000     -0.254000000000000
H       1.374700000000000     -3.561200000000000      1.117300000000000
H       0.108700000000000     -4.264100000000000      0.120300000000000
H       1.273200000000000     -3.907500000000000     -2.590100000000000
H       0.722200000000000     -2.276600000000000     -2.982800000000000
H      -0.380600000000000     -3.409400000000000     -2.194400000000000
H      -3.483700000000000     -0.659400000000000     -0.679000000000000
H      -3.946300000000000     -1.684600000000000      0.676900000000000
H       2.626800000000000     -0.672200000000000      0.666300000000000
H       3.256400000000000     -2.266600000000000      1.085700000000000
H       1.979600000000000      4.144500000000000      0.815400000000000
H       1.972500000000000      4.658100000000000     -0.873600000000000
H       5.272000000000000     -1.831400000000000     -0.350100000000000
H       4.641100000000000     -0.225900000000000     -0.726300000000000
H      -5.685000000000000      0.501700000000000     -0.578500000000000
H      -6.156700000000000     -0.498600000000000      0.796900000000000
H       4.678800000000000      0.348200000000000      1.723700000000000
H       5.338800000000000     -1.249400000000000      2.079900000000000
H       4.285200000000000      4.328700000000000     -0.063400000000000
H       3.929300000000000      2.642500000000000      0.349500000000000
H       3.919600000000000      3.162500000000000     -1.346700000000000
H      -5.950800000000000     -2.552100000000000     -0.614600000000000
H      -5.474900000000000     -1.549100000000000     -1.999300000000000
H      -7.098200000000000     -1.392400000000000     -1.306300000000000
H       6.685500000000000      0.876000000000000      0.328600000000000
H       7.351300000000000     -0.731000000000000      0.681600000000000
H       7.135900000000000      0.447200000000000      1.987800000000000
