76

O       5.033200000000000      1.836400000000000     -0.552200000000000
O      -3.239500000000000     -2.995400000000000      0.217400000000000
C      -2.387000000000000      3.261900000000000      0.536000000000000
C      -2.331200000000000      3.340700000000000     -0.992200000000000
C      -1.019800000000000      3.461800000000000      1.198900000000000
C      -3.699800000000000      3.191300000000000     -1.664400000000000
C      -0.042100000000000      2.321000000000000      0.906800000000000
C      -4.438700000000000      1.877300000000000     -1.384200000000000
C       1.290900000000000      2.522400000000000      1.630800000000000
C      -3.611600000000000      0.629700000000000     -1.705900000000000
C       1.308300000000000     -1.896900000000000     -1.973600000000000
C       1.371800000000000     -2.252300000000000     -0.490200000000000
C       2.278500000000000      1.414600000000000      1.262300000000000
C      -4.413900000000000     -0.673400000000000     -1.638600000000000
C       2.667700000000000     -1.920600000000000     -2.683900000000000
C      -0.024500000000000     -2.440400000000000      0.110300000000000
C       3.687000000000000     -0.895000000000000     -2.172900000000000
C       0.066800000000000     -2.733600000000000      1.608300000000000
C       3.644500000000000      1.627900000000000      1.919400000000000
C      -5.136400000000000     -0.954000000000000     -0.315200000000000
C       4.633500000000000     -1.461200000000000     -1.106700000000000
C      -1.264700000000000     -3.119200000000000      2.260900000000000
C       4.662300000000000      0.577000000000000      1.474700000000000
C      -4.257500000000000     -0.928200000000000      0.934100000000000
C       5.696300000000000     -0.456700000000000     -0.667300000000000
C      -2.323200000000000     -2.017300000000000      2.229000000000000
C       5.107800000000000      0.753900000000000      0.030700000000000
C      -3.258500000000000     -2.071500000000000      1.027700000000000
H      -2.796800000000000      2.298800000000000      0.857200000000000
H      -3.069600000000000      4.036400000000000      0.906500000000000
H      -1.652300000000000      2.582000000000000     -1.394000000000000
H      -1.911100000000000      4.311700000000000     -1.282900000000000
H      -1.169300000000000      3.535100000000000      2.283100000000000
H      -0.588500000000000      4.416000000000000      0.873000000000000
H      -3.561400000000000      3.291500000000000     -2.748300000000000
H      -4.343500000000000      4.025300000000000     -1.358700000000000
H       0.148500000000000      2.257800000000000     -0.169900000000000
H      -0.486100000000000      1.365800000000000      1.213100000000000
H      -5.356500000000000      1.868100000000000     -1.985400000000000
H      -4.757100000000000      1.860100000000000     -0.336300000000000
H       1.128800000000000      2.530900000000000      2.715100000000000
H       1.713100000000000      3.496700000000000      1.356300000000000
H      -2.753100000000000      0.557200000000000     -1.029500000000000
H      -3.199300000000000      0.722600000000000     -2.718400000000000
H       0.850900000000000     -0.906800000000000     -2.092400000000000
H       0.648800000000000     -2.608200000000000     -2.486600000000000
H       1.886700000000000     -1.455400000000000      0.055200000000000
H       1.950400000000000     -3.173900000000000     -0.355900000000000
H       2.388500000000000      1.381200000000000      0.172500000000000
H       1.872000000000000      0.445400000000000      1.574500000000000
H      -3.737700000000000     -1.504500000000000     -1.870400000000000
H      -5.164100000000000     -0.665200000000000     -2.439500000000000
H       2.476000000000000     -1.701500000000000     -3.742400000000000
H       3.089000000000000     -2.932500000000000     -2.653100000000000
H      -0.529300000000000     -3.269000000000000     -0.399800000000000
H      -0.618700000000000     -1.535100000000000     -0.059000000000000
H       3.168900000000000     -0.002900000000000     -1.804800000000000
H       4.298300000000000     -0.571700000000000     -3.025300000000000
H       0.485800000000000     -1.861200000000000      2.125500000000000
H       0.771800000000000     -3.558600000000000      1.771100000000000
H       3.528600000000000      1.568800000000000      3.008500000000000
H       4.016400000000000      2.634200000000000      1.692700000000000
H      -5.630400000000000     -1.930800000000000     -0.393700000000000
H      -5.940700000000000     -0.219300000000000     -0.187900000000000
H       5.144000000000000     -2.341700000000000     -1.516100000000000
H       4.070200000000000     -1.806000000000000     -0.236300000000000
H      -1.049800000000000     -3.347000000000000      3.313000000000000
H      -1.640100000000000     -4.048600000000000      1.817600000000000
H       4.240400000000000     -0.424000000000000      1.608300000000000
H       5.561000000000000      0.649200000000000      2.097300000000000
H      -4.906300000000000     -1.004900000000000      1.814700000000000
H      -3.712100000000000      0.016300000000000      1.009100000000000
H       6.276800000000000     -0.111300000000000     -1.530700000000000
H       6.406800000000000     -0.931200000000000      0.019100000000000
H      -1.854000000000000     -1.028400000000000      2.269000000000000
H      -2.962300000000000     -2.123600000000000      3.114000000000000
