76

O      -4.256800000000000     -1.488500000000000      0.396300000000000
O      -3.475200000000000     -2.595000000000000     -1.474900000000000
C       2.350600000000000     -0.927800000000000      0.326700000000000
C       0.953000000000000     -1.211100000000000     -0.220400000000000
C       2.842800000000000      0.450200000000000     -0.133300000000000
C       3.332200000000000     -2.027000000000000     -0.099300000000000
C       5.241600000000000     -0.361900000000000     -0.067300000000000
C       0.443900000000000     -2.572400000000000      0.272700000000000
C      -0.019300000000000     -0.090100000000000      0.170500000000000
C       4.260200000000000      0.736900000000000      0.359300000000000
C       4.749700000000000     -1.740100000000000      0.392900000000000
C      -0.972900000000000     -2.856600000000000     -0.221100000000000
C      -1.436700000000000     -0.375100000000000     -0.321800000000000
C      -1.937300000000000     -1.735200000000000      0.164900000000000
C       6.639800000000000     -0.078200000000000      0.478500000000000
C       7.323300000000000      1.038300000000000     -0.305700000000000
C      -3.289900000000000     -2.002600000000000     -0.420500000000000
C       8.710100000000001      1.341100000000000      0.264100000000000
C       9.414000000000000      2.435500000000000     -0.537700000000000
C      -5.599300000000000     -1.672900000000000     -0.044000000000000
C      -6.455700000000000     -0.502900000000000      0.449300000000000
C      10.806200000000000      2.715900000000000      0.005100000000000
C      -6.115700000000000     -2.999800000000000      0.496000000000000
C      -5.962300000000000      0.843600000000000     -0.094300000000000
C      -6.850300000000000      1.993200000000000      0.388300000000000
C      -6.421200000000000      3.361100000000000     -0.149900000000000
C      -7.351100000000000      4.499400000000000      0.271800000000000
C      -6.923800000000000      5.822000000000000     -0.346300000000000
H       2.307600000000000     -0.920100000000000      1.425400000000000
H       1.001200000000000     -1.246100000000000     -1.318300000000000
H       2.212500000000000      1.253000000000000      0.260900000000000
H       2.815800000000000      0.518200000000000     -1.228100000000000
H       3.339400000000000     -2.126600000000000     -1.192100000000000
H       3.049100000000000     -2.999300000000000      0.314400000000000
H       5.285800000000000     -0.380200000000000     -1.165100000000000
H       1.071900000000000     -3.391200000000000     -0.090700000000000
H       0.461600000000000     -2.609300000000000      1.369200000000000
H      -0.031100000000000      0.040300000000000      1.259900000000000
H       0.272700000000000      0.867200000000000     -0.271500000000000
H       4.569100000000000      1.710800000000000     -0.034400000000000
H       4.249300000000000      0.825700000000000      1.453400000000000
H       4.771400000000000     -1.796600000000000      1.488900000000000
H       5.423300000000000     -2.521800000000000      0.021400000000000
H      -0.947300000000000     -2.983900000000000     -1.311500000000000
H      -1.321800000000000     -3.810800000000000      0.192900000000000
H      -1.456100000000000     -0.337300000000000     -1.419200000000000
H      -2.109600000000000      0.419200000000000      0.024200000000000
H      -2.025100000000000     -1.728700000000000      1.259600000000000
H       7.257000000000000     -0.982200000000000      0.398600000000000
H       6.592300000000000      0.176600000000000      1.544400000000000
H       7.415500000000000      0.746400000000000     -1.359000000000000
H       6.726700000000000      1.955900000000000     -0.275900000000000
H       9.319300000000000      0.428900000000000      0.250800000000000
H       8.618800000000000      1.653400000000000      1.311600000000000
H       8.822600000000000      3.358000000000000     -0.507800000000000
H       9.493499999999999      2.135000000000000     -1.589000000000000
H      -5.653000000000000     -1.686000000000000     -1.140400000000000
H      -7.500000000000000     -0.659600000000000      0.153300000000000
H      -6.426400000000000     -0.465500000000000      1.545900000000000
H      11.433999999999999      1.820500000000000     -0.043100000000000
H      11.290699999999999      3.502400000000000     -0.582000000000000
H      10.761100000000001      3.048700000000000      1.047000000000000
H      -6.055200000000000     -3.027100000000000      1.589600000000000
H      -5.508500000000000     -3.833400000000000      0.127500000000000
H      -7.154500000000000     -3.172500000000000      0.198400000000000
H      -5.960400000000000      0.817700000000000     -1.190600000000000
H      -4.930300000000000      1.026300000000000      0.227400000000000
H      -7.885800000000000      1.799200000000000      0.081700000000000
H      -6.845100000000000      2.022200000000000      1.484900000000000
H      -6.384700000000000      3.314900000000000     -1.245600000000000
H      -5.401400000000000      3.578300000000000      0.191000000000000
H      -8.378200000000000      4.274100000000000     -0.037700000000000
H      -7.353200000000000      4.590900000000000      1.363900000000000
H      -5.909100000000000      6.090300000000000     -0.035300000000000
H      -6.946300000000000      5.770100000000000     -1.439500000000000
H      -7.599100000000000      6.623300000000000     -0.030500000000000
