76

O      -4.166400000000000      1.641200000000000      0.426000000000000
O      -3.216400000000000      2.726200000000000     -1.378800000000000
C       2.293900000000000      0.124900000000000      0.287200000000000
C       0.952800000000000      0.636900000000000     -0.234800000000000
C       3.409400000000000      1.137300000000000     -0.001900000000000
C       2.627000000000000     -1.242000000000000     -0.324000000000000
C       5.104000000000000     -0.740300000000000     -0.146100000000000
C      -0.170200000000000     -0.357400000000000      0.090200000000000
C       0.639600000000000      2.023100000000000      0.344300000000000
C       4.771000000000000      0.626200000000000      0.465700000000000
C       3.988700000000000     -1.753000000000000      0.143300000000000
C      -1.530000000000000      0.155800000000000     -0.378400000000000
C      -0.721100000000000      2.535600000000000     -0.122900000000000
C      -1.836000000000000      1.539100000000000      0.195600000000000
C       6.445800000000000     -1.252000000000000      0.374600000000000
C       7.610400000000000     -0.513600000000000     -0.278800000000000
C      -3.128800000000000      2.048200000000000     -0.364000000000000
C       8.950799999999999     -1.006600000000000      0.268700000000000
C      10.122999999999999     -0.294600000000000     -0.406100000000000
C      -5.462600000000000      2.058900000000000      0.006700000000000
C      -6.491700000000000      1.007700000000000      0.432900000000000
C      11.457900000000000     -0.805800000000000      0.111500000000000
C      -5.768000000000000      3.414100000000000      0.630600000000000
C      -6.195200000000000     -0.369700000000000     -0.172800000000000
C      -7.219100000000000     -1.409000000000000      0.290400000000000
C      -6.953600000000000     -2.812800000000000     -0.260700000000000
C      -7.932400000000000     -3.865800000000000      0.260300000000000
C      -7.582600000000000     -5.252400000000000     -0.258300000000000
H       2.227000000000000      0.000500000000000      1.377600000000000
H       1.011000000000000      0.735100000000000     -1.328400000000000
H       3.239300000000000      2.082000000000000      0.523100000000000
H       3.452000000000000      1.360500000000000     -1.075400000000000
H       2.617600000000000     -1.180300000000000     -1.419600000000000
H       1.893100000000000     -1.999900000000000     -0.034400000000000
H       5.166800000000000     -0.625700000000000     -1.237200000000000
H      -0.010900000000000     -1.318900000000000     -0.406700000000000
H      -0.206000000000000     -0.549500000000000      1.169900000000000
H       0.660300000000000      1.990500000000000      1.440900000000000
H       1.374900000000000      2.767600000000000      0.024500000000000
H       5.527400000000000      1.370100000000000      0.195000000000000
H       4.771700000000000      0.556600000000000      1.561200000000000
H       3.946900000000000     -1.964000000000000      1.219700000000000
H       4.206200000000000     -2.703700000000000     -0.358200000000000
H      -1.548900000000000      0.190900000000000     -1.475800000000000
H      -2.311000000000000     -0.554800000000000     -0.080900000000000
H      -0.672200000000000      2.727100000000000     -1.203100000000000
H      -0.932600000000000      3.501400000000000      0.352900000000000
H      -1.928500000000000      1.475400000000000      1.288100000000000
H       6.545600000000000     -2.321200000000000      0.147500000000000
H       6.496500000000000     -1.156700000000000      1.466300000000000
H       7.580200000000000     -0.664400000000000     -1.364900000000000
H       7.536500000000000      0.564200000000000     -0.100400000000000
H       9.037699999999999     -2.088000000000000      0.106800000000000
H       8.991800000000000     -0.837800000000000      1.351700000000000
H      10.055999999999999      0.784700000000000     -0.227000000000000
H      10.077400000000001     -0.447100000000000     -1.490700000000000
H      -5.510300000000000      2.146600000000000     -1.086600000000000
H      -6.482300000000000      0.914100000000000      1.526500000000000
H      -7.497500000000000      1.331800000000000      0.139600000000000
H      11.570300000000000     -1.877100000000000     -0.083500000000000
H      12.281900000000000     -0.282400000000000     -0.383300000000000
H      11.549500000000000     -0.641100000000000      1.189900000000000
H      -5.705700000000000      3.364600000000000      1.723400000000000
H      -6.767000000000000      3.763200000000000      0.352300000000000
H      -5.038500000000000      4.164600000000000      0.308600000000000
H      -5.192000000000000     -0.701900000000000      0.118900000000000
H      -6.208800000000000     -0.302200000000000     -1.267200000000000
H      -7.216500000000000     -1.451000000000000      1.386800000000000
H      -8.224299999999999     -1.089800000000000     -0.011500000000000
H      -5.931500000000000     -3.110300000000000      0.005500000000000
H      -6.998500000000000     -2.783800000000000     -1.356500000000000
H      -7.916300000000000     -3.878100000000000      1.356100000000000
H      -8.952299999999999     -3.607900000000000     -0.047100000000000
H      -7.615300000000000     -5.281700000000000     -1.352200000000000
H      -6.580000000000000     -5.551000000000000      0.064000000000000
H      -8.295500000000001     -5.990100000000000      0.122900000000000
