76

N      -3.016000000000000     -2.266700000000000     -0.217600000000000
N       6.571600000000000      1.594700000000000      0.228800000000000
C       1.277300000000000     -2.329700000000000     -0.501700000000000
C       3.542300000000000     -1.461400000000000      0.194000000000000
C       2.736200000000000     -2.689100000000000     -0.226300000000000
C       0.494600000000000     -3.563700000000000     -0.969800000000000
C       0.628000000000000     -1.709800000000000      0.742800000000000
C      -1.622700000000000     -2.625400000000000      0.045000000000000
C      -0.981100000000000     -3.241400000000000     -1.203300000000000
C      -0.847700000000000     -1.387700000000000      0.508400000000000
C       3.538300000000000     -0.404100000000000     -0.918100000000000
C       4.977200000000000     -1.857200000000000      0.567200000000000
C       4.380900000000000      0.814300000000000     -0.541700000000000
C       5.819600000000000     -0.638500000000000      0.942800000000000
C       5.812700000000000      0.411200000000000     -0.174000000000000
C      -3.651200000000000     -1.739200000000000      0.990400000000000
C      -5.114000000000000     -1.347200000000000      0.719900000000000
C      -3.573600000000000     -2.781300000000000      2.105600000000000
C      -5.266200000000000     -0.353400000000000     -0.438700000000000
C      -4.581200000000000      0.948800000000000     -0.127100000000000
C      -3.575700000000000      1.547000000000000     -0.796400000000000
C      -2.918500000000000      2.851700000000000     -0.396000000000000
C      -3.004000000000000      0.893600000000000     -2.029300000000000
C      -1.699300000000000      2.695300000000000      0.522200000000000
C      -1.055600000000000      4.003000000000000      0.890800000000000
C      -0.035700000000000      4.618100000000000      0.263000000000000
C       0.491500000000000      5.934000000000000      0.768500000000000
C       0.672300000000000      4.084100000000000     -0.949300000000000
H       1.216800000000000     -1.608700000000000     -1.324700000000000
H       3.117500000000000     -1.019600000000000      1.101700000000000
H       2.787800000000000     -3.449800000000000      0.563500000000000
H       3.180900000000000     -3.139800000000000     -1.122900000000000
H       0.575400000000000     -4.363900000000000     -0.222900000000000
H       0.929200000000000     -3.952300000000000     -1.898700000000000
H       1.108800000000000     -0.767600000000000      1.021000000000000
H       0.722500000000000     -2.390500000000000      1.598400000000000
H      -1.554600000000000     -3.405000000000000      0.812200000000000
H      -1.068300000000000     -2.550100000000000     -2.052000000000000
H      -1.509700000000000     -4.159800000000000     -1.487100000000000
H      -1.214100000000000     -0.987900000000000      1.458000000000000
H      -0.925900000000000     -0.586500000000000     -0.236700000000000
H       2.527800000000000     -0.036900000000000     -1.120200000000000
H       3.920100000000000     -0.835900000000000     -1.851800000000000
H       5.452100000000000     -2.378000000000000     -0.274100000000000
H       4.965300000000000     -2.559700000000000      1.409200000000000
H       4.390000000000000      1.518500000000000     -1.383100000000000
H       3.905200000000000      1.333400000000000      0.301100000000000
H       6.847100000000000     -0.961600000000000      1.151200000000000
H       5.429100000000000     -0.204100000000000      1.872500000000000
H       6.296600000000000     -0.016800000000000     -1.061200000000000
H      -3.524600000000000     -3.086700000000000     -0.547400000000000
H      -3.170800000000000     -0.821800000000000      1.340000000000000
H       6.604800000000000      2.260200000000000     -0.542300000000000
H       7.536600000000000      1.332500000000000      0.425400000000000
H      -5.554700000000000     -0.921300000000000      1.631100000000000
H      -5.701300000000000     -2.244700000000000      0.484300000000000
H      -4.238900000000000     -2.500700000000000      2.931000000000000
H      -3.891800000000000     -3.773100000000000      1.764300000000000
H      -2.574200000000000     -2.861100000000000      2.544400000000000
H      -6.335500000000000     -0.136500000000000     -0.559700000000000
H      -4.961900000000000     -0.809400000000000     -1.382100000000000
H      -4.957700000000000      1.458900000000000      0.759200000000000
H      -3.663200000000000      3.479500000000000      0.112600000000000
H      -2.642000000000000      3.406800000000000     -1.302100000000000
H      -3.236000000000000     -0.163800000000000     -2.150100000000000
H      -1.910100000000000      0.957600000000000     -2.010900000000000
H      -3.352400000000000      1.423400000000000     -2.922100000000000
H      -0.965600000000000      2.022700000000000      0.063900000000000
H      -2.003100000000000      2.194400000000000      1.450900000000000
H      -1.497700000000000      4.491700000000000      1.757900000000000
H       0.388600000000000      6.704700000000000     -0.002400000000000
H      -0.041100000000000      6.282500000000000      1.659600000000000
H       1.550900000000000      5.842200000000000      1.029800000000000
H       1.714100000000000      3.851200000000000     -0.705500000000000
H       0.213700000000000      3.179300000000000     -1.355500000000000
H       0.664400000000000      4.832500000000000     -1.749100000000000
