76

N       4.370900000000000      0.279800000000000     -0.345500000000000
N      -4.365100000000000     -0.278100000000000     -0.281700000000000
C       6.901100000000000      0.175000000000000     -0.716400000000000
C      -6.887400000000000     -0.190500000000000     -0.716500000000000
C       7.452500000000000      0.661900000000000      0.663700000000000
C      -7.470800000000000     -0.645000000000000      0.661600000000000
C       7.344000000000000     -0.766200000000000      1.257700000000000
C      -7.381000000000000      0.797800000000000      1.222300000000000
C       5.559300000000000     -0.561000000000000     -0.377400000000000
C      -5.556500000000000      0.558600000000000     -0.363500000000000
C       7.898100000000000     -0.971600000000000     -1.078000000000000
C      -7.878600000000000      0.943200000000000     -1.130500000000000
C       5.858900000000000     -1.143300000000000      1.025900000000000
C      -5.891900000000000      1.174400000000000      1.017400000000000
C       8.178300000000000     -1.627100000000000      0.284700000000000
C      -8.193899999999999      1.631300000000000      0.208300000000000
C       6.811500000000000      1.211200000000000     -1.823400000000000
C      -6.767900000000000     -1.253500000000000     -1.794800000000000
C       6.605600000000000      1.716900000000000      1.400800000000000
C       8.889300000000000      1.226200000000000      0.637300000000000
C      -8.897700000000000     -1.225100000000000      0.639000000000000
C      -6.616400000000000     -1.674900000000000      1.431600000000000
C       3.159300000000000     -0.530600000000000     -0.374100000000000
C      -3.157200000000000      0.534800000000000     -0.299000000000000
C       1.921700000000000      0.362600000000000     -0.305000000000000
C      -1.919400000000000     -0.360500000000000     -0.253600000000000
C       0.637100000000000     -0.470700000000000     -0.312000000000000
C      -0.603800000000000      0.424300000000000     -0.279200000000000
H       7.655000000000000     -0.868900000000000      2.300000000000000
H      -7.716900000000000      0.925100000000000      2.254200000000000
H       5.405200000000000     -1.370000000000000     -1.103800000000000
H      -5.387600000000000      1.349800000000000     -1.106000000000000
H       8.823600000000001     -0.591300000000000     -1.524100000000000
H       7.477100000000000     -1.688900000000000     -1.791300000000000
H      -8.792899999999999      0.546000000000000     -1.585400000000000
H      -7.444600000000000      1.643600000000000     -1.852600000000000
H       5.695800000000000     -2.226700000000000      1.050100000000000
H       5.228800000000000     -0.711200000000000      1.811800000000000
H      -5.279100000000000      0.766300000000000      1.829300000000000
H      -5.733300000000000      2.258800000000000      1.017500000000000
H       7.879700000000000     -2.680600000000000      0.297400000000000
H       9.245799999999999     -1.585600000000000      0.525100000000000
H      -7.899600000000000      2.686100000000000      0.202200000000000
H      -9.266900000000000      1.590500000000000      0.423400000000000
H       6.375300000000000      0.777300000000000     -2.729600000000000
H       6.201000000000000      2.070800000000000     -1.530400000000000
H       7.802800000000000      1.594900000000000     -2.087200000000000
H      -6.158100000000000     -2.101500000000000     -1.468900000000000
H      -6.316200000000000     -0.839200000000000     -2.702600000000000
H      -7.751400000000000     -1.650300000000000     -2.068600000000000
H       6.598300000000000      2.662900000000000      0.848000000000000
H       7.028300000000000      1.917100000000000      2.392700000000000
H       5.565600000000000      1.437400000000000      1.569200000000000
H       8.910600000000001      2.202900000000000      0.140200000000000
H       9.618700000000000      0.597700000000000      0.122800000000000
H       9.262499999999999      1.364900000000000      1.658800000000000
H      -8.904400000000001     -2.216200000000000      0.171000000000000
H      -9.624000000000001     -0.617900000000000      0.094800000000000
H      -9.282600000000000     -1.335500000000000      1.659500000000000
H      -6.584000000000000     -2.629500000000000      0.894700000000000
H      -7.055900000000000     -1.866900000000000      2.418000000000000
H      -5.585200000000000     -1.377600000000000      1.619800000000000
H       4.360500000000000      0.900100000000000     -1.153600000000000
H      -4.335100000000000     -0.914600000000000     -1.076700000000000
H       3.121100000000000     -1.126400000000000     -1.294400000000000
H       3.141600000000000     -1.224600000000000      0.474500000000000
H      -3.135600000000000      1.213300000000000      0.561600000000000
H      -3.118000000000000      1.145800000000000     -1.209200000000000
H       1.954800000000000      0.974300000000000      0.605500000000000
H       1.914200000000000      1.052900000000000     -1.158100000000000
H      -1.946600000000000     -0.980500000000000      0.651800000000000
H      -1.935900000000000     -1.049000000000000     -1.108600000000000
H       0.628200000000000     -1.141600000000000      0.555400000000000
H       0.608800000000000     -1.100400000000000     -1.209400000000000
H      -0.595300000000000      1.080900000000000     -1.158100000000000
H      -0.560400000000000      1.075400000000000      0.602700000000000
