76

N       1.672800000000000     -0.819500000000000     -0.784200000000000
N      -1.678400000000000      0.825700000000000     -0.788100000000000
C       1.496400000000000     -1.659200000000000      0.399700000000000
C       3.037500000000000     -0.299600000000000     -0.844200000000000
C      -1.490900000000000      1.651600000000000      0.403600000000000
C      -3.045200000000000      0.310200000000000     -0.838300000000000
C       0.707500000000000      0.279500000000000     -0.780800000000000
C      -0.715600000000000     -0.270000000000000     -0.809600000000000
C       0.061800000000000     -2.207500000000000      0.465400000000000
C       2.519000000000000     -2.795500000000000      0.411100000000000
C       3.206400000000000      0.577700000000000     -2.089500000000000
C       3.351800000000000      0.487100000000000      0.433000000000000
C      -0.055000000000000      2.197500000000000      0.463300000000000
C      -2.511800000000000      2.788800000000000      0.436800000000000
C      -3.230500000000000     -0.553500000000000     -2.090900000000000
C      -3.347500000000000     -0.489100000000000      0.433900000000000
C      -0.070700000000000     -3.461900000000000      1.335200000000000
C       2.425300000000000     -3.628400000000000      1.693900000000000
C       4.599700000000000      1.201900000000000     -2.145800000000000
C       4.745200000000000      1.110800000000000      0.373600000000000
C       0.086700000000000      3.441800000000000      1.346000000000000
C      -2.405900000000000      3.607100000000000      1.728200000000000
C      -4.626000000000000     -1.173300000000000     -2.138100000000000
C      -4.743300000000000     -1.108200000000000      0.383500000000000
C       1.048900000000000     -3.580500000000000      2.359700000000000
C       4.921600000000000      1.976300000000000     -0.870800000000000
C      -1.023900000000000      3.550000000000000      2.381400000000000
C      -4.935900000000000     -1.960100000000000     -0.867900000000000
H       1.623100000000000     -1.084700000000000      1.326400000000000
H       3.767800000000000     -1.102500000000000     -0.982200000000000
H      -1.606900000000000      1.061900000000000      1.321900000000000
H      -3.775200000000000      1.115800000000000     -0.960700000000000
H       0.811500000000000      0.929600000000000     -1.646300000000000
H       1.040100000000000      0.628000000000000      0.138400000000000
H      -1.085200000000000     -0.709000000000000      0.052300000000000
H      -0.795300000000000     -0.873300000000000     -1.714200000000000
H      -0.401800000000000     -2.494100000000000     -0.481200000000000
H      -0.448000000000000     -1.574000000000000      1.203300000000000
H       3.560900000000000     -2.471000000000000      0.362100000000000
H       2.352400000000000     -3.450000000000000     -0.455100000000000
H       2.533100000000000      1.437700000000000     -2.118500000000000
H       3.029500000000000     -0.008100000000000     -2.999700000000000
H       3.349900000000000     -0.135700000000000      1.331800000000000
H       2.690900000000000      1.338200000000000      0.611700000000000
H       0.414400000000000      2.494500000000000     -0.475700000000000
H       0.454100000000000      1.582500000000000      1.215200000000000
H      -3.554700000000000      2.467200000000000      0.393800000000000
H      -2.351800000000000      3.452900000000000     -0.423300000000000
H      -2.554200000000000     -1.411300000000000     -2.132600000000000
H      -3.062100000000000      0.041200000000000     -2.996900000000000
H      -3.336900000000000      0.125900000000000      1.338200000000000
H      -2.695600000000000     -1.347900000000000      0.605800000000000
H      -0.036200000000000     -4.347300000000000      0.686200000000000
H      -1.050000000000000     -3.489400000000000      1.829600000000000
H       3.173500000000000     -3.283400000000000      2.418300000000000
H       2.686600000000000     -4.667300000000000      1.457600000000000
H       4.671800000000000      1.870500000000000     -3.011300000000000
H       5.347100000000000      0.412300000000000     -2.291700000000000
H       5.501000000000000      0.315500000000000      0.374200000000000
H       4.920500000000000      1.716100000000000      1.270600000000000
H       0.044800000000000      4.334100000000000      0.706700000000000
H       1.070700000000000      3.467700000000000      1.831700000000000
H      -3.148100000000000      3.254800000000000      2.455100000000000
H      -2.667800000000000      4.648900000000000      1.505900000000000
H      -4.709200000000000     -1.832800000000000     -3.009600000000000
H      -5.372900000000000     -0.380300000000000     -2.267600000000000
H      -5.496700000000000     -0.310700000000000      0.400400000000000
H      -4.911200000000000     -1.722100000000000      1.276100000000000
H       1.003400000000000     -2.726800000000000      3.047600000000000
H       0.907900000000000     -4.478700000000000      2.971700000000000
H       5.950600000000000      2.350100000000000     -0.916700000000000
H       4.266100000000000      2.853200000000000     -0.801100000000000
H      -0.973500000000000      2.688900000000000      3.059600000000000
H      -0.876600000000000      4.441300000000000      3.002100000000000
H      -5.966400000000000     -2.330600000000000     -0.906300000000000
H      -4.282200000000000     -2.839400000000000     -0.814600000000000
