76

O      -0.009900000000000     -0.798500000000000      0.388900000000000
O       0.840200000000000     -2.117700000000000     -1.306400000000000
C       5.239300000000000     -0.842700000000000      0.149700000000000
C      -4.053900000000000      0.138100000000000     -0.483900000000000
C       2.303600000000000     -1.182000000000000      0.359700000000000
C       4.307100000000000      0.358100000000000      0.359800000000000
C       4.619600000000000     -2.122900000000000      0.726000000000000
C       2.914500000000000      0.098200000000000     -0.210800000000000
C       3.227600000000000     -2.382200000000000      0.153800000000000
C      -1.324500000000000     -0.956900000000000     -0.133200000000000
C      -3.052000000000000      0.096000000000000     -1.646000000000000
C      -3.760600000000000     -0.973300000000000      0.533700000000000
C      -1.610700000000000      0.147900000000000     -1.148100000000000
C      -2.317300000000000     -0.918000000000000      1.025600000000000
C       6.608300000000000     -0.578200000000000      0.773500000000000
C      -5.486500000000000      0.029500000000000     -1.002800000000000
C       0.983200000000000     -1.436500000000000     -0.300100000000000
C       7.425000000000000      0.391100000000000     -0.076100000000000
C      -6.490800000000000      0.590800000000000      0.003600000000000
C       8.783200000000001      0.678000000000000      0.568200000000000
C      -7.921600000000000      0.511300000000000     -0.533900000000000
C      -8.928100000000001      1.038500000000000      0.491100000000000
C       9.589600000000001      1.679400000000000     -0.261800000000000
C     -10.384399999999999      0.916300000000000      0.033300000000000
C      10.949299999999999      2.019900000000000      0.352000000000000
C     -11.393500000000000      1.375000000000000      1.086800000000000
C      11.765300000000000      2.995100000000000     -0.482200000000000
C     -12.821899999999999      1.245800000000000      0.579700000000000
H       5.365600000000000     -0.998200000000000     -0.930800000000000
H      -3.928500000000000      1.107800000000000      0.017600000000000
H       2.138200000000000     -1.065700000000000      1.439200000000000
H       4.219000000000000      0.581600000000000      1.430800000000000
H       4.710800000000000      1.256000000000000     -0.119300000000000
H       5.263200000000000     -2.983300000000000      0.507200000000000
H       4.552900000000000     -2.045800000000000      1.818900000000000
H       2.976300000000000      0.031600000000000     -1.305200000000000
H       2.265200000000000      0.954800000000000      0.008200000000000
H       2.797000000000000     -3.273500000000000      0.626400000000000
H       3.324300000000000     -2.615400000000000     -0.914800000000000
H      -1.430400000000000     -1.935800000000000     -0.620700000000000
H      -3.199700000000000     -0.819900000000000     -2.232500000000000
H      -3.227400000000000      0.939600000000000     -2.324200000000000
H      -4.427000000000000     -0.891100000000000      1.399100000000000
H      -3.947400000000000     -1.955600000000000      0.081100000000000
H      -0.922100000000000      0.066100000000000     -1.997400000000000
H      -1.406900000000000      1.127100000000000     -0.695700000000000
H      -2.159800000000000     -0.007400000000000      1.618500000000000
H      -2.121300000000000     -1.753300000000000      1.708900000000000
H       6.497400000000000     -0.192600000000000      1.794600000000000
H       7.166100000000000     -1.520200000000000      0.852100000000000
H      -5.583800000000000      0.602900000000000     -1.933800000000000
H      -5.732800000000000     -1.010700000000000     -1.249100000000000
H       6.890900000000000      1.338800000000000     -0.200600000000000
H       7.576500000000000     -0.028800000000000     -1.078000000000000
H      -6.432600000000000      0.034700000000000      0.945700000000000
H      -6.246100000000000      1.636000000000000      0.229400000000000
H       9.350000000000000     -0.255300000000000      0.669600000000000
H       8.635400000000001      1.079000000000000      1.578200000000000
H      -8.163100000000000     -0.529800000000000     -0.779900000000000
H      -8.004400000000000      1.091000000000000     -1.461000000000000
H      -8.805999999999999      0.486300000000000      1.431400000000000
H      -8.706700000000000      2.090100000000000      0.711100000000000
H       9.742699999999999      1.272200000000000     -1.269100000000000
H       9.010500000000000      2.603900000000000     -0.379100000000000
H     -10.520500000000000      1.504600000000000     -0.882700000000000
H     -10.590500000000000     -0.129000000000000     -0.229100000000000
H      10.799799999999999      2.446600000000000      1.351000000000000
H      11.528499999999999      1.098200000000000      0.484000000000000
H     -11.198700000000001      2.419300000000000      1.356600000000000
H     -11.277200000000001      0.776600000000000      1.997700000000000
H      11.233100000000000      3.943600000000000     -0.604800000000000
H      12.724000000000000      3.201800000000000      0.003500000000000
H      11.967800000000000      2.583800000000000     -1.476100000000000
H     -13.056900000000001      0.206200000000000      0.329600000000000
H     -13.527699999999999      1.578500000000000      1.347200000000000
H     -12.978000000000000      1.858500000000000     -0.314000000000000
