76

O       5.240800000000000     -0.665500000000000      1.118000000000000
O      -3.191500000000000      0.931700000000000      1.588500000000000
C       0.329000000000000      3.830700000000000     -0.980500000000000
C       1.649200000000000      3.605600000000000     -1.720700000000000
C      -0.944300000000000     -3.538300000000000     -0.790100000000000
C      -0.161500000000000     -4.429500000000000     -1.759000000000000
C      -0.820000000000000      4.072900000000000     -1.964400000000000
C       2.882100000000000      3.615300000000000     -0.812100000000000
C      -1.957600000000000     -4.353700000000000      0.016300000000000
C       0.761000000000000     -3.651100000000000     -2.703900000000000
C      -2.178200000000000      4.191000000000000     -1.268000000000000
C       2.805000000000000      2.622800000000000      0.350400000000000
C      -2.630100000000000     -3.557000000000000      1.138600000000000
C       1.759300000000000     -2.705700000000000     -2.028700000000000
C      -2.781900000000000      2.826900000000000     -0.917100000000000
C       4.164300000000000      2.471700000000000      1.038500000000000
C      -3.445100000000000     -2.361300000000000      0.640000000000000
C       2.736500000000000     -3.418900000000000     -1.089700000000000
C      -4.102300000000000      2.989200000000000     -0.156700000000000
C       4.116000000000000      1.697500000000000      2.361800000000000
C      -4.244700000000000     -1.723700000000000      1.781700000000000
C       3.724100000000000     -2.459700000000000     -0.416800000000000
C      -4.864400000000000      1.675700000000000      0.010400000000000
C       3.409200000000000      0.345900000000000      2.307100000000000
C      -5.080300000000000     -0.536700000000000      1.307100000000000
C       3.053800000000000     -1.561900000000000      0.621400000000000
C       4.027300000000000     -0.622500000000000      1.313000000000000
C      -4.255900000000000      0.708700000000000      1.014900000000000
H       0.109100000000000      2.958900000000000     -0.355500000000000
H       0.420300000000000      4.695900000000000     -0.312800000000000
H       1.782700000000000      4.384100000000000     -2.482100000000000
H       1.602200000000000      2.648900000000000     -2.255800000000000
H      -0.254300000000000     -3.042600000000000     -0.098300000000000
H      -1.461600000000000     -2.756100000000000     -1.357000000000000
H      -0.867000000000000     -5.004900000000000     -2.371900000000000
H       0.421900000000000     -5.165000000000000     -1.192900000000000
H      -0.852500000000000      3.276900000000000     -2.717900000000000
H      -0.623500000000000      5.009400000000000     -2.501500000000000
H       3.029700000000000      4.626400000000000     -0.412700000000000
H       3.760400000000000      3.391100000000000     -1.430200000000000
H      -1.450900000000000     -5.215500000000000      0.468200000000000
H      -2.724000000000000     -4.756400000000000     -0.657200000000000
H       0.140800000000000     -3.060200000000000     -3.389700000000000
H       1.309400000000000     -4.368800000000000     -3.326500000000000
H      -2.868500000000000      4.711500000000000     -1.943700000000000
H      -2.087100000000000      4.811400000000000     -0.368500000000000
H       2.472300000000000      1.649600000000000     -0.027200000000000
H       2.062400000000000      2.966900000000000      1.079400000000000
H      -1.869100000000000     -3.210800000000000      1.848700000000000
H      -3.288400000000000     -4.239300000000000      1.690700000000000
H       1.208700000000000     -1.923500000000000     -1.497300000000000
H       2.332000000000000     -2.194700000000000     -2.812800000000000
H      -2.075800000000000      2.246600000000000     -0.315400000000000
H      -2.954700000000000      2.263300000000000     -1.842000000000000
H       4.583600000000000      3.464700000000000      1.244100000000000
H       4.862100000000000      1.980200000000000      0.349900000000000
H      -4.133300000000000     -2.689200000000000     -0.148400000000000
H      -2.776500000000000     -1.614000000000000      0.198800000000000
H       3.305800000000000     -4.157000000000000     -1.667900000000000
H       2.195600000000000     -3.972200000000000     -0.314300000000000
H      -4.746500000000000      3.685000000000000     -0.708700000000000
H      -3.909100000000000      3.442500000000000      0.823000000000000
H       3.609700000000000      2.317800000000000      3.112000000000000
H       5.144200000000000      1.559800000000000      2.718500000000000
H      -3.566700000000000     -1.419600000000000      2.587900000000000
H      -4.922600000000000     -2.476700000000000      2.202400000000000
H       4.229600000000000     -1.849300000000000     -1.175000000000000
H       4.505000000000000     -3.053400000000000      0.074900000000000
H      -4.951800000000000      1.161400000000000     -0.952900000000000
H      -5.875600000000000      1.907000000000000      0.365500000000000
H       2.352100000000000      0.490100000000000      2.059900000000000
H       3.444000000000000     -0.133000000000000      3.292200000000000
H      -5.804500000000000     -0.262000000000000      2.082200000000000
H      -5.641400000000000     -0.813700000000000      0.407700000000000
H       2.574100000000000     -2.173900000000000      1.393300000000000
H       2.289900000000000     -0.939400000000000      0.145800000000000
