76

O      -8.812700000000000      0.922000000000000      1.358700000000000
O      -8.020500000000000      0.399600000000000     -0.703600000000000
C       4.895100000000000      1.302600000000000      1.548800000000000
C       5.427200000000000      2.358600000000000      0.575400000000000
C       5.921900000000000      0.221400000000000      1.899100000000000
C       4.390600000000000      3.437200000000000      0.240600000000000
C       6.435700000000000     -0.612200000000000      0.719500000000000
C       3.249000000000000      2.908600000000000     -0.633100000000000
C       5.361300000000000     -1.243000000000000     -0.171600000000000
C       2.237800000000000      4.008000000000000     -0.963800000000000
C       4.440900000000000     -2.214700000000000      0.570200000000000
C       1.127700000000000      3.548500000000000     -1.916500000000000
C       3.414400000000000     -2.832600000000000     -0.383800000000000
C       0.337400000000000      2.308300000000000     -1.482200000000000
C       2.510200000000000     -3.833400000000000      0.338500000000000
C      -0.380200000000000      2.478700000000000     -0.141200000000000
C       1.555500000000000     -4.572500000000000     -0.604600000000000
C      -1.058300000000000      1.195300000000000      0.350100000000000
C       0.524800000000000     -3.697300000000000     -1.324700000000000
C      -2.215200000000000      0.732900000000000     -0.539700000000000
C      -0.490200000000000     -3.053400000000000     -0.376500000000000
C      -2.923900000000000     -0.466800000000000      0.048200000000000
C      -1.548500000000000     -2.263500000000000     -1.153300000000000
C      -4.040700000000000     -0.144200000000000      1.006700000000000
C      -2.623100000000000     -1.748600000000000     -0.236400000000000
C      -5.371500000000000     -0.041800000000000      0.270600000000000
C      -6.511300000000000      0.358500000000000      1.208300000000000
C      -7.833000000000000      0.543600000000000      0.496300000000000
H       4.591200000000000      1.800200000000000      2.478400000000000
H       3.993900000000000      0.827000000000000      1.150700000000000
H       5.768100000000000      1.892100000000000     -0.355100000000000
H       6.301600000000000      2.844100000000000      1.026000000000000
H       6.782300000000000      0.691100000000000      2.391900000000000
H       5.477900000000000     -0.448900000000000      2.645100000000000
H       4.898100000000000      4.250900000000000     -0.292100000000000
H       3.988500000000000      3.865600000000000      1.166600000000000
H       7.081900000000000     -1.406200000000000      1.114700000000000
H       7.081700000000000      0.013700000000000      0.092100000000000
H       2.738400000000000      2.094100000000000     -0.111600000000000
H       3.659500000000000      2.494900000000000     -1.561900000000000
H       5.867700000000000     -1.782100000000000     -0.982400000000000
H       4.765300000000000     -0.459600000000000     -0.653800000000000
H       2.760100000000000      4.852200000000000     -1.431300000000000
H       1.797600000000000      4.396300000000000     -0.038100000000000
H       3.910700000000000     -1.697000000000000      1.377100000000000
H       5.042300000000000     -3.007100000000000      1.031500000000000
H       1.573000000000000      3.342300000000000     -2.898000000000000
H       0.430400000000000      4.382500000000000     -2.064700000000000
H       3.936000000000000     -3.337300000000000     -1.206000000000000
H       2.810400000000000     -2.031200000000000     -0.824000000000000
H       1.001000000000000      1.436900000000000     -1.444500000000000
H      -0.400300000000000      2.096500000000000     -2.265000000000000
H       1.947800000000000     -3.326400000000000      1.130400000000000
H       3.137500000000000     -4.582800000000000      0.837700000000000
H      -1.120600000000000      3.283900000000000     -0.217500000000000
H       0.338000000000000      2.781000000000000      0.628800000000000
H       1.027400000000000     -5.344700000000000     -0.031300000000000
H       2.147900000000000     -5.103300000000000     -1.360500000000000
H      -1.428800000000000      1.378100000000000      1.366800000000000
H      -0.308600000000000      0.398000000000000      0.431900000000000
H      -0.014600000000000     -4.332700000000000     -2.038800000000000
H       1.026000000000000     -2.925800000000000     -1.919400000000000
H      -1.855700000000000      0.505600000000000     -1.547800000000000
H      -2.932700000000000      1.552800000000000     -0.671600000000000
H       0.019900000000000     -2.379400000000000      0.321600000000000
H      -0.972500000000000     -3.835600000000000      0.223200000000000
H      -2.024300000000000     -2.913000000000000     -1.898200000000000
H      -1.058100000000000     -1.459900000000000     -1.710100000000000
H      -3.823500000000000      0.788800000000000      1.540700000000000
H      -4.110300000000000     -0.919900000000000      1.780600000000000
H      -3.214800000000000     -2.527700000000000      0.243500000000000
H      -5.616200000000000     -0.999100000000000     -0.207700000000000
H      -5.297900000000000      0.696400000000000     -0.538700000000000
H      -6.264100000000000      1.306000000000000      1.700700000000000
H      -6.644600000000000     -0.413600000000000      1.974300000000000
H      -9.670600000000000      1.054300000000000      0.901700000000000
