76

O      -3.673800000000000     -0.931800000000000     -1.681600000000000
O       3.729100000000000      1.447800000000000     -0.885800000000000
C      -3.211700000000000     -0.041400000000000     -0.660600000000000
C       2.848800000000000      0.489900000000000     -0.288900000000000
C      -2.793400000000000     -0.846600000000000      0.599700000000000
C       3.540800000000000     -0.185300000000000      0.926400000000000
C      -4.378100000000000      0.910200000000000     -0.323300000000000
C       2.519900000000000     -0.562000000000000     -1.368200000000000
C      -4.000900000000000     -1.572200000000000      1.220900000000000
C       4.771700000000000     -0.997500000000000      0.483500000000000
C      -5.576600000000000      0.181300000000000      0.304700000000000
C       3.750600000000000     -1.375300000000000     -1.799400000000000
C      -5.141100000000000     -0.610100000000000      1.540800000000000
C       4.420200000000000     -2.026800000000000     -0.586500000000000
C      -2.051800000000000      0.777600000000000     -1.241000000000000
C       1.558500000000000      1.219500000000000      0.106000000000000
C      -1.680900000000000     -1.869900000000000      0.341400000000000
C       3.965800000000000      0.797800000000000      2.023800000000000
C      -1.529800000000000      1.800600000000000     -0.228800000000000
C       0.916600000000000      1.886900000000000     -1.107100000000000
C      -0.365700000000000      2.609400000000000     -0.757500000000000
C      -6.681500000000000      1.174100000000000      0.664100000000000
C       3.361400000000000     -2.433400000000000     -2.831100000000000
C      -0.899400000000000     -2.138800000000000      1.623000000000000
C      -2.267600000000000     -3.161800000000000     -0.216900000000000
C       4.024900000000000      0.092300000000000      3.374400000000000
C       5.312300000000000      1.425800000000000      1.680900000000000
C      -0.468400000000000      3.939800000000000     -0.913000000000000
H      -2.451600000000000     -0.137300000000000      1.362400000000000
H       2.809300000000000     -0.888500000000000      1.351100000000000
H      -4.076100000000000      1.681700000000000      0.390600000000000
H      -4.718500000000000      1.422100000000000     -1.232900000000000
H       1.735200000000000     -1.239000000000000     -1.006200000000000
H       2.155700000000000     -0.087700000000000     -2.285000000000000
H      -3.717900000000000     -2.087600000000000      2.145400000000000
H      -4.425700000000000     -2.321600000000000      0.544000000000000
H       5.210200000000000     -1.531500000000000      1.334100000000000
H       5.562200000000000     -0.373500000000000      0.054400000000000
H      -5.987600000000000     -0.520900000000000     -0.432400000000000
H       4.476100000000000     -0.711800000000000     -2.285700000000000
H      -5.991400000000000     -1.176200000000000      1.940100000000000
H      -4.820500000000000      0.078100000000000      2.333500000000000
H       5.331500000000000     -2.551000000000000     -0.899000000000000
H       3.754100000000000     -2.783900000000000     -0.153000000000000
H      -2.395200000000000      1.306500000000000     -2.141700000000000
H      -1.258500000000000      0.119600000000000     -1.606700000000000
H       1.758800000000000      2.013200000000000      0.832300000000000
H       0.869500000000000      0.509800000000000      0.576900000000000
H      -0.954800000000000     -1.486700000000000     -0.379700000000000
H       3.237500000000000      1.603800000000000      2.137200000000000
H      -2.317500000000000      2.503800000000000      0.054900000000000
H      -1.200100000000000      1.325600000000000      0.698000000000000
H       0.662500000000000      1.169800000000000     -1.890400000000000
H       1.624200000000000      2.591400000000000     -1.562100000000000
H      -7.549700000000000      0.653300000000000      1.081600000000000
H      -6.337600000000000      1.904800000000000      1.404000000000000
H      -7.014900000000000      1.721900000000000     -0.223500000000000
H       2.635900000000000     -3.143500000000000     -2.419700000000000
H       2.915100000000000     -1.968200000000000     -3.716300000000000
H       4.240300000000000     -2.999200000000000     -3.157700000000000
H      -3.938600000000000     -0.400400000000000     -2.451600000000000
H       4.538300000000000      1.008300000000000     -1.188100000000000
H      -1.522000000000000     -2.581500000000000      2.406400000000000
H      -0.462100000000000     -1.215500000000000      2.017800000000000
H      -0.074500000000000     -2.833300000000000      1.428100000000000
H      -2.800300000000000     -3.752600000000000      0.536100000000000
H      -1.442500000000000     -3.803700000000000     -0.552300000000000
H      -2.908600000000000     -3.028200000000000     -1.088800000000000
H       4.768500000000000     -0.710300000000000      3.393800000000000
H       3.052200000000000     -0.339100000000000      3.634200000000000
H       4.289800000000000      0.802800000000000      4.165400000000000
H       6.153200000000000      0.733600000000000      1.797200000000000
H       5.510700000000000      2.234700000000000      2.396500000000000
H       5.360600000000000      1.891500000000000      0.696900000000000
H      -1.381700000000000      4.471700000000000     -0.667900000000000
H       0.359700000000000      4.530900000000000     -1.290000000000000
