77

N      -0.104900000000000      0.552800000000000      0.857300000000000
N      -0.650500000000000     -2.170300000000000      0.148200000000000
C      -2.921800000000000     -0.217500000000000      0.188900000000000
C      -2.207500000000000     -0.697500000000000      1.482100000000000
C      -1.793000000000000     -0.166000000000000     -0.876900000000000
C      -1.106800000000000      0.314200000000000      1.905200000000000
C      -0.692100000000000      0.846700000000000     -0.457100000000000
C      -1.592400000000000     -2.109000000000000      1.274100000000000
C      -1.177400000000000     -1.576800000000000     -1.088100000000000
C      -3.600200000000000      1.160800000000000      0.380200000000000
C      -4.067500000000000     -1.171600000000000     -0.227300000000000
C      -4.319900000000000      1.580700000000000     -0.889300000000000
C       0.847600000000000      1.584100000000000      1.257000000000000
C      -0.176700000000000     -3.532800000000000     -0.075300000000000
C      -5.108000000000000     -1.260900000000000      0.861900000000000
C      -5.010600000000000      2.929200000000000     -0.687700000000000
C       2.113600000000000      1.489800000000000      0.405900000000000
C       1.137100000000000     -3.511900000000000     -0.856000000000000
C       3.163100000000000      2.547300000000000      0.762600000000000
C       2.256000000000000     -2.750700000000000     -0.137800000000000
C      -5.768300000000000      3.358900000000000     -1.933800000000000
C       4.421400000000000      2.472400000000000     -0.105200000000000
C       3.565500000000000     -2.705400000000000     -0.928400000000000
C       5.462500000000000      3.500500000000000      0.340300000000000
C       4.666000000000000     -1.998600000000000     -0.135700000000000
C       6.703100000000000      3.453300000000000     -0.537400000000000
C       5.961500000000000     -1.921800000000000     -0.927900000000000
H      -2.905300000000000     -0.748800000000000      2.324500000000000
H      -2.189400000000000      0.145400000000000     -1.849800000000000
H      -0.601400000000000     -0.082600000000000      2.795500000000000
H      -1.571400000000000      1.257300000000000      2.217500000000000
H      -1.091200000000000      1.866900000000000     -0.491500000000000
H       0.079100000000000      0.801800000000000     -1.233700000000000
H      -1.060100000000000     -2.385600000000000      2.193800000000000
H      -2.389100000000000     -2.852500000000000      1.156000000000000
H      -1.918600000000000     -2.236300000000000     -1.554800000000000
H      -0.371600000000000     -1.465300000000000     -1.822600000000000
H      -4.282100000000000      1.161400000000000      1.237700000000000
H      -2.874000000000000      1.940700000000000      0.627700000000000
H      -4.510600000000000     -0.938800000000000     -1.198700000000000
H      -3.695600000000000     -2.190000000000000     -0.375800000000000
H      -3.630100000000000      1.673200000000000     -1.733200000000000
H      -5.115100000000000      0.891300000000000     -1.178100000000000
H       1.144100000000000      1.434600000000000      2.303400000000000
H       0.406200000000000      2.586600000000000      1.193200000000000
H      -0.924500000000000     -4.143100000000000     -0.596900000000000
H       0.019300000000000     -4.028400000000000      0.884600000000000
H      -5.682100000000000     -0.341500000000000      0.998800000000000
H      -5.845900000000000     -2.019800000000000      0.572100000000000
H      -4.716600000000000     -1.589100000000000      1.826500000000000
H      -5.711800000000000      2.869900000000000      0.153100000000000
H      -4.267700000000000      3.695800000000000     -0.437700000000000
H       1.887000000000000      1.611500000000000     -0.658000000000000
H       2.559200000000000      0.496600000000000      0.526800000000000
H       0.996700000000000     -3.108500000000000     -1.864700000000000
H       1.461800000000000     -4.550900000000000     -0.998100000000000
H       2.716800000000000      3.544700000000000      0.664500000000000
H       3.442400000000000      2.427700000000000      1.816900000000000
H       1.938700000000000     -1.721900000000000      0.060100000000000
H       2.436600000000000     -3.219800000000000      0.837500000000000
H      -6.547000000000000      2.633600000000000     -2.190900000000000
H      -5.092900000000000      3.456500000000000     -2.789800000000000
H      -6.249300000000000      4.328200000000000     -1.769000000000000
H       4.852100000000000      1.466300000000000     -0.043100000000000
H       4.152800000000000      2.645300000000000     -1.154200000000000
H       3.884700000000000     -3.726500000000000     -1.169300000000000
H       3.399400000000000     -2.184900000000000     -1.879200000000000
H       5.032300000000000      4.507900000000000      0.299300000000000
H       5.750200000000000      3.312300000000000      1.381300000000000
H       4.347500000000000     -0.984800000000000      0.126100000000000
H       4.849600000000000     -2.532900000000000      0.803700000000000
H       6.453900000000000      3.671600000000000     -1.580800000000000
H       7.434400000000000      4.194600000000000     -0.200500000000000
H       7.175300000000000      2.466500000000000     -0.495900000000000
H       5.819300000000000     -1.362700000000000     -1.858300000000000
H       6.734200000000000     -1.414300000000000     -0.341900000000000
H       6.327400000000000     -2.922200000000000     -1.179800000000000
