77

O      -3.578000000000000      0.370600000000000     -2.415800000000000
N      -3.203500000000000      0.402200000000000     -0.119700000000000
C       4.614100000000000      1.421700000000000      1.201200000000000
C       3.080300000000000     -3.431900000000000      0.282800000000000
C       3.903600000000000      0.147300000000000      1.704500000000000
C      -4.467900000000000      0.022400000000000      2.473300000000000
C       3.124500000000000     -2.210200000000000      1.224800000000000
C       3.870400000000000     -0.988700000000000      0.673800000000000
C       3.967700000000000      1.962400000000000     -0.093500000000000
C      -5.289200000000000      0.247600000000000      1.196800000000000
C      -3.128800000000000     -0.640100000000000      2.123500000000000
C       2.241600000000000     -3.218500000000000     -0.993600000000000
C      -4.491300000000000      1.040300000000000      0.166200000000000
C      -2.365800000000000      0.154900000000000      1.063100000000000
C       2.511100000000000      2.408300000000000      0.080200000000000
C       0.838400000000000     -2.666000000000000     -0.716800000000000
C       1.926300000000000      2.907100000000000     -1.246100000000000
C       4.610800000000000      2.532300000000000      2.258400000000000
C       4.490800000000000     -3.895200000000000     -0.097600000000000
C      -5.246300000000000     -0.822000000000000      3.479200000000000
C       0.044800000000000     -2.376700000000000     -1.998400000000000
C       0.470300000000000      3.395100000000000     -1.130100000000000
C      -2.865900000000000      0.121000000000000     -1.441600000000000
C      -1.357700000000000     -1.845600000000000     -1.761000000000000
C      -1.559400000000000     -0.517500000000000     -1.698100000000000
C      -0.038900000000000      3.838600000000000     -2.503900000000000
C       0.315500000000000      4.540200000000000     -0.128300000000000
C      -2.417700000000000     -2.899500000000000     -1.582900000000000
H       5.658300000000000      1.170800000000000      0.973700000000000
H       2.609500000000000     -4.246900000000000      0.849400000000000
H       4.428800000000000     -0.207500000000000      2.601100000000000
H       2.883100000000000      0.381900000000000      2.029400000000000
H      -4.264100000000000      0.998000000000000      2.934200000000000
H       2.116000000000000     -1.927700000000000      1.544500000000000
H       3.633400000000000     -2.524900000000000      2.146700000000000
H       4.899600000000000     -1.248700000000000      0.406100000000000
H       3.360600000000000     -0.665000000000000     -0.237500000000000
H       4.044900000000000      1.225700000000000     -0.900000000000000
H       4.555800000000000      2.824200000000000     -0.437900000000000
H      -6.215600000000000      0.783700000000000      1.433600000000000
H      -5.576200000000000     -0.720100000000000      0.765400000000000
H      -3.308000000000000     -1.655700000000000      1.746700000000000
H      -2.508700000000000     -0.735600000000000      3.022500000000000
H       2.153700000000000     -4.171100000000000     -1.531300000000000
H       2.767100000000000     -2.529900000000000     -1.667200000000000
H      -5.083500000000000      1.152500000000000     -0.747600000000000
H      -4.277700000000000      2.048700000000000      0.540600000000000
H      -2.074900000000000      1.134900000000000      1.460100000000000
H      -1.445800000000000     -0.371600000000000      0.798800000000000
H       1.891800000000000      1.582300000000000      0.444400000000000
H       2.464800000000000      3.211700000000000      0.819400000000000
H       0.287900000000000     -3.376400000000000     -0.088300000000000
H       0.901400000000000     -1.725600000000000     -0.159800000000000
H       1.973800000000000      2.095200000000000     -1.983200000000000
H       2.553600000000000      3.720600000000000     -1.633200000000000
H       3.607500000000000      2.735300000000000      2.645300000000000
H       5.029600000000000      3.463000000000000      1.861700000000000
H       5.226900000000000      2.231800000000000      3.113200000000000
H       4.446600000000000     -4.859900000000000     -0.615000000000000
H       4.989200000000000     -3.188100000000000     -0.768100000000000
H       5.114200000000000     -4.026000000000000      0.793000000000000
H      -5.479700000000000     -1.812100000000000      3.073300000000000
H      -4.668000000000000     -0.960800000000000      4.398600000000000
H      -6.189800000000000     -0.334700000000000      3.746500000000000
H       0.609500000000000     -1.656500000000000     -2.606100000000000
H      -0.014700000000000     -3.286200000000000     -2.609900000000000
H      -0.154500000000000      2.558900000000000     -0.791600000000000
H      -0.730000000000000      0.173900000000000     -1.819400000000000
H       0.031600000000000      3.019200000000000     -3.227200000000000
H      -1.089300000000000      4.143800000000000     -2.449700000000000
H       0.540900000000000      4.683900000000000     -2.889800000000000
H       0.501200000000000      4.204800000000000      0.896300000000000
H      -0.704500000000000      4.939800000000000     -0.151300000000000
H       1.004100000000000      5.361500000000000     -0.353000000000000
H      -2.489200000000000     -3.519200000000000     -2.482600000000000
H      -3.408000000000000     -2.473200000000000     -1.397000000000000
H      -2.173000000000000     -3.545200000000000     -0.733600000000000
