77

O      -7.018400000000000      3.409700000000000     -0.556300000000000
N      -3.305500000000000     -1.940300000000000      0.315500000000000
C      -4.139400000000000      0.187400000000000     -0.672400000000000
C      -5.849500000000000      1.675700000000000      0.724600000000000
C      -5.034400000000000      0.367600000000000      0.570900000000000
C      -4.836100000000000      0.703300000000000     -1.951900000000000
C      -6.456100000000000      2.099700000000000     -0.645400000000000
C      -3.829900000000000     -1.328200000000000     -0.908800000000000
C      -5.451600000000000      2.085200000000000     -1.794400000000000
C      -2.789800000000000      0.919500000000000     -0.474400000000000
C      -5.092800000000000     -0.637900000000000      1.471100000000000
C      -4.336700000000000     -1.933200000000000      1.358000000000000
C      -7.043800000000000      1.528800000000000      1.711600000000000
C      -4.954600000000000      2.789600000000000      1.315900000000000
C      -2.824200000000000     -3.297400000000000      0.068800000000000
C      -1.473500000000000     -3.256200000000000     -0.645200000000000
C      -0.388000000000000     -2.528300000000000      0.154200000000000
C       0.958600000000000     -2.461000000000000     -0.569500000000000
C       2.000200000000000     -1.714400000000000      0.267300000000000
C       3.338500000000000     -1.617700000000000     -0.467100000000000
C       4.369500000000000     -0.842400000000000      0.354800000000000
C       5.697500000000000     -0.717400000000000     -0.393800000000000
C       6.718100000000000      0.086400000000000      0.413900000000000
C       8.057399999999999      0.183100000000000     -0.320600000000000
C       9.065799999999999      1.015600000000000      0.474300000000000
C      10.419300000000000      1.164500000000000     -0.226500000000000
C      11.435200000000000      1.975300000000000      0.579000000000000
C      12.764200000000001      2.082900000000000     -0.153500000000000
H      -4.126200000000000      0.719000000000000     -2.788800000000000
H      -5.636300000000000      0.009400000000000     -2.244600000000000
H      -7.279500000000000      1.417600000000000     -0.897600000000000
H      -3.115200000000000     -1.401200000000000     -1.736000000000000
H      -4.735200000000000     -1.859200000000000     -1.238100000000000
H      -5.960300000000000      2.363800000000000     -2.726100000000000
H      -4.682900000000000      2.852400000000000     -1.651500000000000
H      -2.338600000000000      0.686200000000000      0.496800000000000
H      -2.883500000000000      2.005000000000000     -0.538700000000000
H      -2.069900000000000      0.629100000000000     -1.249200000000000
H      -5.718300000000000     -0.563600000000000      2.354200000000000
H      -3.857900000000000     -2.131700000000000      2.324600000000000
H      -5.072700000000000     -2.730200000000000      1.187400000000000
H      -6.705200000000000      1.361800000000000      2.740600000000000
H      -7.697900000000000      0.696900000000000      1.425300000000000
H      -7.661300000000000      2.434600000000000      1.733000000000000
H      -4.215100000000000      3.161200000000000      0.604600000000000
H      -4.416500000000000      2.435600000000000      2.203100000000000
H      -5.549200000000000      3.657600000000000      1.625100000000000
H      -3.545700000000000     -3.886200000000000     -0.511600000000000
H      -2.678400000000000     -3.824400000000000      1.021000000000000
H      -7.429800000000000      3.612600000000000     -1.413700000000000
H      -1.559200000000000     -2.814300000000000     -1.643400000000000
H      -1.146300000000000     -4.291300000000000     -0.809100000000000
H      -0.710500000000000     -1.503600000000000      0.373100000000000
H      -0.255500000000000     -3.031300000000000      1.120200000000000
H       0.829000000000000     -1.955300000000000     -1.534000000000000
H       1.313000000000000     -3.476900000000000     -0.781000000000000
H       2.141900000000000     -2.229700000000000      1.225000000000000
H       1.633300000000000     -0.705800000000000      0.493700000000000
H       3.190700000000000     -1.119400000000000     -1.433000000000000
H       3.717000000000000     -2.625300000000000     -0.677600000000000
H       3.981000000000000      0.158300000000000      0.580200000000000
H       4.532800000000000     -1.349400000000000      1.313500000000000
H       6.096600000000000     -1.717800000000000     -0.600600000000000
H       5.530900000000000     -0.229100000000000     -1.361700000000000
H       6.325900000000000      1.093700000000000      0.599900000000000
H       6.870200000000000     -0.387200000000000      1.391400000000000
H       8.461700000000000     -0.822500000000000     -0.487300000000000
H       7.905100000000000      0.638800000000000     -1.306300000000000
H       8.648300000000001      2.013600000000000      0.657200000000000
H       9.220499999999999      0.552500000000000      1.456800000000000
H      10.266200000000000      1.642100000000000     -1.202300000000000
H      10.829800000000001      0.166500000000000     -0.424400000000000
H      11.597600000000000      1.502600000000000      1.554400000000000
H      11.042199999999999      2.981100000000000      0.766300000000000
H      13.197699999999999      1.092800000000000     -0.327500000000000
H      13.476400000000000      2.666300000000000      0.438200000000000
H      12.639600000000000      2.579000000000000     -1.121300000000000
