77

O       0.811800000000000      0.218500000000000      0.429200000000000
N      -6.518100000000000     -0.052200000000000      1.894800000000000
C      -3.526800000000000     -0.593000000000000     -0.253000000000000
C      -4.721800000000000      0.104000000000000      0.437200000000000
C      -2.359100000000000     -0.741900000000000      0.755400000000000
C      -3.201700000000000      0.205400000000000     -1.541600000000000
C      -5.986200000000000      0.138700000000000     -0.418800000000000
C       0.103000000000000      1.329400000000000     -0.116000000000000
C      -5.176300000000000     -0.598600000000000      1.706800000000000
C      -1.839600000000000      0.495400000000000      1.487000000000000
C      -1.173100000000000      1.630600000000000      0.706800000000000
C      -2.132300000000000     -0.333600000000000     -2.493800000000000
C      -3.987700000000000     -2.018400000000000     -0.640200000000000
C      -0.154600000000000      1.086800000000000     -1.624300000000000
C      -0.672100000000000     -0.291500000000000     -2.047000000000000
C      -7.133700000000000     -0.051300000000000      0.568000000000000
C       2.080600000000000      0.040100000000000     -0.235600000000000
C       1.042900000000000      2.550600000000000     -0.008000000000000
C       2.375900000000000     -1.483800000000000     -0.168300000000000
C       3.080400000000000      0.929900000000000      0.544100000000000
C       1.873400000000000      0.502200000000000     -1.683700000000000
C       3.801200000000000     -1.948300000000000     -0.494100000000000
C       4.289400000000000      1.443800000000000     -0.248300000000000
C       4.632600000000000     -2.179900000000000      0.774200000000000
C       5.535700000000000      1.724100000000000      0.598400000000000
C       6.143700000000000     -2.008100000000000      0.594300000000000
C       6.194100000000000      0.493900000000000      1.238300000000000
C       6.618500000000000     -0.592900000000000      0.238300000000000
H      -4.455000000000000      1.142900000000000      0.679700000000000
H      -1.521800000000000     -1.268900000000000      0.299800000000000
H      -2.677000000000000     -1.441300000000000      1.542800000000000
H      -3.024000000000000      1.255700000000000     -1.309000000000000
H      -4.111200000000000      0.238500000000000     -2.157800000000000
H      -6.067200000000000     -0.611100000000000     -1.205800000000000
H      -6.069100000000000      1.116900000000000     -0.908500000000000
H      -4.550700000000000     -0.357400000000000      2.571000000000000
H      -5.260800000000000     -1.684300000000000      1.652400000000000
H      -1.115800000000000      0.143100000000000      2.235300000000000
H      -2.650200000000000      0.933400000000000      2.080900000000000
H      -1.908500000000000      2.194400000000000      0.126700000000000
H      -0.892000000000000      2.345300000000000      1.495400000000000
H      -2.206800000000000      0.253400000000000     -3.420600000000000
H      -2.380500000000000     -1.359600000000000     -2.789900000000000
H      -4.371800000000000     -2.618000000000000      0.186100000000000
H      -3.126100000000000     -2.588100000000000     -1.013400000000000
H      -4.716300000000000     -2.043900000000000     -1.454100000000000
H      -1.052600000000000      1.716400000000000     -1.744800000000000
H       0.307200000000000      1.680700000000000     -2.431500000000000
H      -0.460800000000000     -1.074600000000000     -1.320700000000000
H      -0.165800000000000     -0.617400000000000     -2.965300000000000
H      -7.888400000000000      0.736400000000000      0.478600000000000
H      -7.630900000000000     -1.012200000000000      0.393700000000000
H      -6.432800000000000      0.914800000000000      2.211300000000000
H       1.212100000000000      2.826800000000000      1.040500000000000
H       1.964000000000000      2.662700000000000     -0.560600000000000
H       0.465400000000000      3.409800000000000     -0.388700000000000
H       1.689800000000000     -1.993400000000000     -0.858300000000000
H       2.081100000000000     -1.864300000000000      0.819700000000000
H       3.467700000000000      0.268800000000000      1.324500000000000
H       2.703800000000000      1.699500000000000      1.212000000000000
H       2.019800000000000      1.538400000000000     -2.005300000000000
H       1.498500000000000     -0.233800000000000     -2.389100000000000
H       2.887800000000000      0.270200000000000     -2.073100000000000
H       4.288900000000000     -1.280500000000000     -1.202700000000000
H       3.734500000000000     -2.912800000000000     -1.015300000000000
H       4.022300000000000      2.383800000000000     -0.743900000000000
H       4.573900000000000      0.771700000000000     -1.054900000000000
H       4.287400000000000     -1.570500000000000      1.610700000000000
H       4.453600000000000     -3.213600000000000      1.101000000000000
H       5.282000000000000      2.441100000000000      1.388800000000000
H       6.279000000000000      2.219300000000000     -0.039500000000000
H       6.494600000000000     -2.701300000000000     -0.180000000000000
H       6.635800000000000     -2.313700000000000      1.526400000000000
H       5.553000000000000      0.097500000000000      2.029900000000000
H       7.095700000000000      0.841500000000000      1.760400000000000
H       7.716300000000000     -0.614500000000000      0.210000000000000
H       6.321500000000000     -0.351000000000000     -0.785300000000000
