77

N      -4.080100000000000      0.826400000000000     -0.027700000000000
N     -11.009200000000000     -1.228200000000000      0.033200000000000
C      -6.912800000000000      0.117600000000000     -0.288500000000000
C      -8.181200000000000     -0.487300000000000      0.306800000000000
C      -5.792900000000000     -0.925000000000000     -0.373700000000000
C      -6.438300000000000      1.321100000000000      0.533100000000000
C      -8.635700000000000     -1.713900000000000     -0.494500000000000
C      -9.311500000000001      0.548100000000000      0.364200000000000
C      -4.488900000000000     -0.301300000000000     -0.875600000000000
C      -5.113100000000000      1.870400000000000      0.000600000000000
C      -9.965299999999999     -2.255300000000000      0.030500000000000
C     -10.613899999999999     -0.082800000000000      0.856000000000000
C      -2.806700000000000      1.378700000000000     -0.489500000000000
C      -1.642000000000000      0.542200000000000      0.038500000000000
C      -0.299100000000000      1.119800000000000     -0.415500000000000
C       0.873900000000000      0.311100000000000      0.142700000000000
C       2.246200000000000      0.869800000000000     -0.250700000000000
C       3.458400000000000      0.110800000000000      0.302700000000000
C       4.798400000000000      0.678100000000000     -0.171900000000000
C       6.012000000000000     -0.085400000000000      0.370900000000000
C       7.382200000000000      0.424400000000000     -0.090500000000000
C       8.553599999999999     -0.404100000000000      0.442500000000000
C       9.891100000000000      0.095500000000000     -0.108700000000000
C      11.087700000000000     -0.730700000000000      0.375600000000000
C      12.427000000000000     -0.254700000000000     -0.191800000000000
C      13.613899999999999     -1.098200000000000      0.280700000000000
C      14.946300000000001     -0.647100000000000     -0.299300000000000
H      -7.127800000000000      0.466600000000000     -1.308600000000000
H      -7.972000000000000     -0.816100000000000      1.335000000000000
H      -5.625000000000000     -1.385000000000000      0.608800000000000
H      -6.053300000000000     -1.728800000000000     -1.070100000000000
H      -7.166600000000000      2.137600000000000      0.494900000000000
H      -6.320400000000000      1.039000000000000      1.587500000000000
H      -8.738700000000000     -1.456700000000000     -1.556700000000000
H      -7.905700000000000     -2.526600000000000     -0.423700000000000
H      -9.065600000000000      1.365100000000000      1.050300000000000
H      -9.470900000000000      0.991100000000000     -0.627400000000000
H      -4.616900000000000      0.019500000000000     -1.918200000000000
H      -3.727600000000000     -1.088600000000000     -0.872200000000000
H      -5.263700000000000      2.297600000000000     -0.999800000000000
H      -4.800000000000000      2.688400000000000      0.661100000000000
H      -9.836200000000000     -2.662100000000000      1.041100000000000
H     -10.290400000000000     -3.084600000000000     -0.607500000000000
H     -11.411099999999999      0.667900000000000      0.818700000000000
H     -10.514200000000001     -0.390100000000000      1.904400000000000
H      -2.674100000000000      2.395200000000000     -0.095400000000000
H      -2.771300000000000      1.464300000000000     -1.583200000000000
H     -11.871800000000000     -1.626300000000000      0.403300000000000
H      -1.675300000000000      0.514100000000000      1.135100000000000
H      -1.710500000000000     -0.493700000000000     -0.311500000000000
H      -0.213800000000000      2.160800000000000     -0.080800000000000
H      -0.250500000000000      1.127100000000000     -1.511000000000000
H       0.806100000000000      0.282600000000000      1.237300000000000
H       0.798700000000000     -0.726400000000000     -0.205600000000000
H       2.312800000000000      0.887000000000000     -1.346000000000000
H       2.308700000000000      1.914700000000000      0.079000000000000
H       3.386800000000000     -0.941600000000000      0.002000000000000
H       3.422800000000000      0.130100000000000      1.398700000000000
H       4.828900000000000      0.661500000000000     -1.268200000000000
H       4.873900000000000      1.729600000000000      0.130700000000000
H       5.916700000000000     -1.139900000000000      0.081800000000000
H       5.980700000000000     -0.062100000000000      1.467700000000000
H       7.500700000000000      1.468200000000000      0.225000000000000
H       7.406600000000000      0.421000000000000     -1.187300000000000
H       8.565799999999999     -0.361000000000000      1.538000000000000
H       8.414700000000000     -1.455200000000000      0.162200000000000
H       9.862399999999999      0.072000000000000     -1.205200000000000
H      10.035600000000001      1.143200000000000      0.182700000000000
H      10.933500000000000     -1.780600000000000      0.097400000000000
H      11.127900000000000     -0.696500000000000      1.471300000000000
H      12.590100000000000      0.791300000000000      0.095500000000000
H      12.382500000000000     -0.279200000000000     -1.287600000000000
H      13.672800000000001     -1.061600000000000      1.375000000000000
H      13.446899999999999     -2.146600000000000      0.006000000000000
H      15.165100000000001      0.386900000000000     -0.014800000000000
H      15.757000000000000     -1.282200000000000      0.071100000000000
H      14.936600000000000     -0.708200000000000     -1.392100000000000
