77

O       1.005900000000000     -3.044300000000000     -0.051300000000000
N       0.236200000000000     -0.958900000000000     -0.750400000000000
C      -2.036300000000000     -1.194600000000000      0.103600000000000
C      -2.276200000000000      0.294400000000000      0.423700000000000
C      -3.303900000000000     -2.054300000000000     -0.131900000000000
C       2.513600000000000     -1.191000000000000      0.010900000000000
C      -1.096000000000000     -1.338500000000000     -1.100500000000000
C      -3.070500000000000      1.058300000000000     -0.642600000000000
C      -4.303100000000000     -2.145000000000000      1.033100000000000
C       3.628200000000000     -2.211200000000000     -0.292600000000000
C       2.523900000000000     -0.682600000000000      1.464400000000000
C      -3.633600000000000      2.376700000000000     -0.101300000000000
C      -5.348600000000000     -1.027500000000000      1.151600000000000
C       5.062900000000000     -1.654100000000000     -0.265900000000000
C       2.037700000000000      0.770200000000000      1.634000000000000
C       1.187500000000000     -1.846000000000000     -0.250700000000000
C      -4.774500000000000      2.960800000000000     -0.949200000000000
C      -6.324200000000000     -0.942500000000000     -0.027900000000000
C       5.316100000000000     -0.554300000000000     -1.304000000000000
C       2.818400000000000      1.840500000000000      0.855000000000000
C      -5.990600000000000      2.043700000000000     -1.159500000000000
C      -7.322700000000000      0.222900000000000      0.080900000000000
C      -6.702000000000000      1.627100000000000      0.135000000000000
C       6.717600000000000      0.068800000000000     -1.238600000000000
C       4.320300000000000      1.854600000000000      1.154000000000000
C       7.081100000000000      0.840000000000000      0.039200000000000
C       5.113800000000000      2.581000000000000      0.065100000000000
C       6.619100000000000      2.305800000000000      0.116000000000000
H      -1.531000000000000     -1.623200000000000      0.981300000000000
H      -1.318400000000000      0.806400000000000      0.575300000000000
H      -2.781000000000000      0.356700000000000      1.393500000000000
H      -2.956600000000000     -3.082300000000000     -0.310300000000000
H      -3.803900000000000     -1.763600000000000     -1.060400000000000
H       2.618600000000000     -0.368000000000000     -0.698400000000000
H      -1.413400000000000     -0.729700000000000     -1.952100000000000
H      -1.069000000000000     -2.380200000000000     -1.440800000000000
H      -3.878800000000000      0.428700000000000     -1.006400000000000
H      -2.433000000000000      1.273100000000000     -1.507900000000000
H      -3.748100000000000     -2.212200000000000      1.976900000000000
H      -4.847200000000000     -3.093600000000000      0.934700000000000
H       3.574400000000000     -3.039000000000000      0.427100000000000
H       3.452800000000000     -2.657500000000000     -1.280800000000000
H       1.879900000000000     -1.319200000000000      2.086500000000000
H       3.517900000000000     -0.776200000000000      1.909700000000000
H      -2.821100000000000      3.112300000000000     -0.050000000000000
H      -3.980700000000000      2.248100000000000      0.929000000000000
H      -5.931700000000000     -1.207400000000000      2.064200000000000
H      -4.848400000000000     -0.073700000000000      1.305800000000000
H       5.754300000000000     -2.483300000000000     -0.462600000000000
H       5.296900000000000     -1.304500000000000      0.741900000000000
H       2.083100000000000      1.018300000000000      2.702100000000000
H       0.981100000000000      0.835400000000000      1.353500000000000
H      -4.375200000000000      3.233500000000000     -1.934000000000000
H      -5.111500000000000      3.894300000000000     -0.481900000000000
H      -5.787000000000000     -0.870600000000000     -0.976100000000000
H      -6.895500000000000     -1.878200000000000     -0.076500000000000
H       0.491800000000000      0.015600000000000     -0.879800000000000
H       4.567300000000000      0.231400000000000     -1.228600000000000
H       5.187500000000000     -0.992300000000000     -2.302400000000000
H       2.401400000000000      2.826100000000000      1.097500000000000
H       2.643800000000000      1.703000000000000     -0.217200000000000
H      -6.714800000000000      2.579900000000000     -1.787000000000000
H      -5.695000000000000      1.176900000000000     -1.755800000000000
H      -8.015200000000000      0.171600000000000     -0.768400000000000
H      -7.929000000000000      0.079100000000000      0.983900000000000
H      -7.507900000000000      2.348600000000000      0.323000000000000
H      -6.048200000000000      1.700700000000000      1.006300000000000
H       6.851300000000000      0.729200000000000     -2.104200000000000
H       7.446400000000000     -0.743000000000000     -1.360900000000000
H       4.687200000000000      0.835600000000000      1.243600000000000
H       4.499700000000000      2.330500000000000      2.125500000000000
H       8.178599999999999      0.866800000000000      0.089400000000000
H       6.774600000000000      0.292400000000000      0.934600000000000
H       4.949400000000000      3.660600000000000      0.172100000000000
H       4.740500000000000      2.324900000000000     -0.931500000000000
H       7.015800000000000      2.733800000000000      1.045700000000000
H       7.095500000000000      2.863800000000000     -0.700100000000000
