77

O      -7.029900000000000      1.285100000000000     -0.868300000000000
N      -5.053300000000000      0.045500000000000     -0.064700000000000
C       3.007500000000000      1.354100000000000      0.379000000000000
C       3.524900000000000     -0.168100000000000      0.219500000000000
C      -0.919200000000000     -0.902600000000000      0.772800000000000
C       1.458100000000000      1.514600000000000      0.437200000000000
C       2.571800000000000     -1.057900000000000     -0.661800000000000
C      -2.382000000000000     -1.085000000000000      0.377700000000000
C       3.429400000000000      2.211300000000000     -0.855000000000000
C       4.908100000000000     -0.190400000000000     -0.509200000000000
C      -0.727600000000000      0.548000000000000      1.273600000000000
C      -0.011800000000000     -1.322300000000000     -0.405400000000000
C       0.707500000000000      0.939200000000000      1.638200000000000
C       1.393600000000000     -1.774100000000000      0.028100000000000
C       3.626400000000000      2.047700000000000      1.614900000000000
C       3.821700000000000     -0.860600000000000      1.576100000000000
C      -2.726400000000000     -0.250000000000000     -0.859900000000000
C      -3.315700000000000     -0.706900000000000      1.532200000000000
C      -6.495400000000000      0.030700000000000     -0.423000000000000
C      -4.213600000000000     -0.351300000000000     -1.202900000000000
C      -4.783800000000000     -0.792800000000000      1.111400000000000
C       5.733600000000000     -1.427000000000000     -0.161100000000000
C       2.779800000000000      1.651400000000000     -2.105500000000000
C       3.043400000000000      3.658800000000000     -0.620600000000000
C      -7.484000000000000      0.813500000000000      0.408300000000000
C      -6.981900000000000     -1.140700000000000     -1.215500000000000
C       5.034800000000000     -2.733500000000000     -0.540000000000000
C       7.083900000000000     -1.336600000000000     -0.876000000000000
H      -0.719200000000000     -1.578000000000000      1.616200000000000
H       0.983900000000000      1.121000000000000     -0.453000000000000
H       1.163600000000000      2.566100000000000      0.460100000000000
H       2.113100000000000     -0.469100000000000     -1.446400000000000
H       3.088600000000000     -1.792200000000000     -1.270600000000000
H      -2.555800000000000     -2.143600000000000      0.138500000000000
H       4.513800000000000      2.224300000000000     -0.998600000000000
H       4.819300000000000     -0.114100000000000     -1.595900000000000
H       5.511300000000000      0.660900000000000     -0.171200000000000
H      -1.269000000000000      0.659400000000000      2.219400000000000
H      -1.127000000000000      1.305100000000000      0.595800000000000
H       0.019500000000000     -0.547600000000000     -1.176000000000000
H      -0.468000000000000     -2.193000000000000     -0.897700000000000
H       0.673100000000000      1.715600000000000      2.414700000000000
H       1.202700000000000      0.093000000000000      2.103300000000000
H       1.489000000000000     -1.784100000000000      1.114300000000000
H       1.478200000000000     -2.836400000000000     -0.244200000000000
H       4.702100000000000      2.214000000000000      1.494200000000000
H       3.487000000000000      1.457500000000000      2.525400000000000
H       3.148600000000000      3.000900000000000      1.861800000000000
H       4.696500000000000     -0.429500000000000      2.078700000000000
H       3.007400000000000     -0.692400000000000      2.283400000000000
H       3.915600000000000     -1.944100000000000      1.573700000000000
H      -2.162900000000000     -0.593900000000000     -1.734100000000000
H      -2.496000000000000      0.811200000000000     -0.734400000000000
H      -3.170600000000000      0.322900000000000      1.871300000000000
H      -3.140400000000000     -1.363100000000000      2.392800000000000
H      -4.418800000000000     -1.381700000000000     -1.519600000000000
H      -4.416000000000000      0.302900000000000     -2.060000000000000
H      -5.400500000000000     -0.461700000000000      1.955600000000000
H      -5.044300000000000     -1.841000000000000      0.917300000000000
H       6.008300000000000     -1.467900000000000      0.897300000000000
H       1.690600000000000      1.619400000000000     -2.131300000000000
H       3.015800000000000      2.351600000000000     -2.922100000000000
H       3.208200000000000      0.723800000000000     -2.478900000000000
H       3.449300000000000      4.246500000000000     -1.457500000000000
H       3.489700000000000      4.126700000000000      0.258200000000000
H       1.973800000000000      3.874800000000000     -0.658000000000000
H      -8.506200000000000      0.464000000000000      0.477800000000000
H      -7.132900000000000      1.343000000000000      1.285100000000000
H      -6.613100000000000     -1.108300000000000     -2.246100000000000
H      -8.076400000000000     -1.151900000000000     -1.275100000000000
H      -6.679400000000000     -2.090000000000000     -0.762500000000000
H       4.847400000000000     -2.782000000000000     -1.619200000000000
H       4.131500000000000     -3.006200000000000      0.000400000000000
H       5.724900000000000     -3.563900000000000     -0.335800000000000
H       6.959900000000000     -1.321800000000000     -1.964400000000000
H       7.718400000000000     -2.193000000000000     -0.622700000000000
H       7.623000000000000     -0.428900000000000     -0.583900000000000
