77

O      -5.165400000000000      1.962900000000000      0.770400000000000
N      -2.855400000000000      2.238500000000000      0.750200000000000
C       2.607800000000000     -0.236400000000000     -1.254000000000000
C      -1.032700000000000     -3.800100000000000     -0.360100000000000
C       2.252400000000000     -1.690800000000000     -0.878900000000000
C      -0.660300000000000      3.416800000000000     -0.752900000000000
C       0.460000000000000     -3.410600000000000     -0.404700000000000
C       0.743200000000000     -1.959500000000000     -0.812400000000000
C       4.134300000000000      0.000700000000000     -1.238500000000000
C      -2.114500000000000      3.861800000000000     -0.959100000000000
C      -0.621600000000000      1.958400000000000     -0.276900000000000
C      -1.930000000000000     -2.789600000000000      0.382900000000000
C      -2.940500000000000      3.631100000000000      0.302700000000000
C      -1.486400000000000      1.747000000000000      0.966400000000000
C       4.724500000000000      0.147800000000000      0.169000000000000
C      -3.356700000000000     -3.298800000000000      0.620100000000000
C       6.234200000000000      0.406400000000000      0.108400000000000
C       2.060400000000000      0.146800000000000     -2.634100000000000
C      -1.587900000000000     -4.045900000000000     -1.767300000000000
C       0.149200000000000      3.592300000000000     -2.035300000000000
C      -4.214000000000000     -2.320500000000000      1.435100000000000
C       6.890500000000000      0.537200000000000      1.495400000000000
C      -4.030900000000000      1.521700000000000      0.961300000000000
C      -4.370600000000000     -0.948600000000000      0.803100000000000
C      -3.912400000000000      0.134900000000000      1.454500000000000
C       6.719100000000000     -0.722900000000000      2.344800000000000
C       8.379500000000000      0.854600000000000      1.336600000000000
C      -5.075700000000000     -0.935300000000000     -0.526700000000000
H       2.155000000000000      0.434300000000000     -0.516600000000000
H      -1.084500000000000     -4.759000000000000      0.173500000000000
H       2.708900000000000     -2.375500000000000     -1.605100000000000
H       2.689900000000000     -1.932000000000000      0.096800000000000
H      -0.208900000000000      4.049200000000000      0.023200000000000
H       0.878200000000000     -3.567700000000000      0.598500000000000
H       0.998300000000000     -4.097200000000000     -1.070000000000000
H       0.293600000000000     -1.267200000000000     -0.092300000000000
H       0.282400000000000     -1.771900000000000     -1.786900000000000
H       4.641000000000000     -0.812700000000000     -1.773200000000000
H       4.362400000000000      0.922800000000000     -1.789000000000000
H      -2.559300000000000      3.299800000000000     -1.790500000000000
H      -2.149600000000000      4.923300000000000     -1.230600000000000
H       0.407900000000000      1.673200000000000     -0.044600000000000
H      -0.973700000000000      1.295800000000000     -1.077800000000000
H      -1.967200000000000     -1.851500000000000     -0.183000000000000
H      -1.472800000000000     -2.559600000000000      1.353700000000000
H      -2.570300000000000      4.258700000000000      1.122200000000000
H      -3.980100000000000      3.919800000000000      0.117700000000000
H      -1.480600000000000      0.687500000000000      1.233600000000000
H      -1.074600000000000      2.302800000000000      1.817000000000000
H       4.230800000000000      0.973400000000000      0.694900000000000
H       4.523400000000000     -0.767100000000000      0.733200000000000
H      -3.313500000000000     -4.252100000000000      1.161300000000000
H      -3.858400000000000     -3.505400000000000     -0.330600000000000
H       6.717500000000000     -0.407300000000000     -0.447900000000000
H       6.414400000000000      1.326800000000000     -0.461500000000000
H       2.419000000000000     -0.541400000000000     -3.406800000000000
H       0.966700000000000      0.140200000000000     -2.648300000000000
H       2.372300000000000      1.159300000000000     -2.912300000000000
H      -1.709000000000000     -3.109500000000000     -2.321600000000000
H      -0.913800000000000     -4.690600000000000     -2.341900000000000
H      -2.556300000000000     -4.553900000000000     -1.737600000000000
H      -0.248900000000000      2.974000000000000     -2.847000000000000
H       1.194400000000000      3.308100000000000     -1.874400000000000
H       0.132900000000000      4.636400000000000     -2.365000000000000
H      -3.784000000000000     -2.236500000000000      2.441600000000000
H      -5.212200000000000     -2.755400000000000      1.573300000000000
H       6.422000000000000      1.375000000000000      2.027300000000000
H      -3.403700000000000      0.027300000000000      2.408900000000000
H       7.283800000000000     -0.640000000000000      3.279900000000000
H       5.672100000000000     -0.882800000000000      2.618800000000000
H       7.075700000000000     -1.611900000000000      1.813800000000000
H       8.853800000000000      0.997300000000000      2.313500000000000
H       8.521900000000000      1.775000000000000      0.760500000000000
H       8.905900000000001      0.045200000000000      0.819200000000000
H      -4.495900000000000     -1.481500000000000     -1.276900000000000
H      -6.060400000000000     -1.405600000000000     -0.437000000000000
H      -5.229700000000000      0.072500000000000     -0.920700000000000
