77

N       3.480000000000000     -0.293100000000000     -0.441400000000000
N       8.346700000000000      0.167300000000000      0.208600000000000
C       0.598300000000000      0.457100000000000     -0.485600000000000
C      -2.388800000000000     -0.163300000000000     -0.366400000000000
C      -0.460400000000000      1.279100000000000     -1.261400000000000
C      -0.075100000000000     -0.175000000000000      0.759700000000000
C      -1.723700000000000      0.484000000000000     -1.599400000000000
C      -1.345000000000000     -0.968100000000000      0.436500000000000
C       1.735600000000000      1.412400000000000     -0.045000000000000
C       1.225100000000000     -0.616100000000000     -1.412300000000000
C      -3.500900000000000     -1.117900000000000     -0.841000000000000
C      -3.040200000000000      0.913800000000000      0.523700000000000
C       2.953100000000000      0.678200000000000      0.523500000000000
C       2.464700000000000     -1.286000000000000     -0.809800000000000
C      -4.210400000000000     -1.750600000000000      0.346000000000000
C      -4.132000000000000      1.653100000000000     -0.234800000000000
C       4.672700000000000     -0.951100000000000      0.091000000000000
C      -5.294900000000000     -2.719000000000000     -0.129300000000000
C      -4.756300000000000      2.739700000000000      0.642200000000000
C       5.902200000000000     -0.065200000000000     -0.118200000000000
C      -6.042100000000000     -3.339600000000000      1.050900000000000
C      -5.879100000000000      3.470800000000000     -0.093300000000000
C       7.192500000000000     -0.701900000000000      0.402400000000000
C      -7.143300000000000     -4.277300000000000      0.582300000000000
C      -6.524900000000000      4.529200000000000      0.786700000000000
C       9.590000000000000     -0.602400000000000      0.281500000000000
C       8.356100000000000      1.241800000000000      1.202900000000000
H      -0.026100000000000      1.658200000000000     -2.195700000000000
H      -0.737200000000000      2.169100000000000     -0.682900000000000
H      -0.327600000000000      0.616900000000000      1.476500000000000
H       0.617100000000000     -0.837700000000000      1.290200000000000
H      -2.407100000000000      1.110700000000000     -2.178000000000000
H      -1.440600000000000     -0.313200000000000     -2.300400000000000
H      -1.067700000000000     -1.877900000000000     -0.109900000000000
H      -1.756100000000000     -1.300100000000000      1.396700000000000
H       1.364900000000000      2.126100000000000      0.701800000000000
H       2.062600000000000      2.012800000000000     -0.905600000000000
H       1.517300000000000     -0.147000000000000     -2.362300000000000
H       0.499400000000000     -1.393800000000000     -1.672400000000000
H      -3.047700000000000     -1.920300000000000     -1.440600000000000
H      -4.210700000000000     -0.636800000000000     -1.522000000000000
H      -2.288300000000000      1.646400000000000      0.840600000000000
H      -3.424200000000000      0.502900000000000      1.463500000000000
H       3.704700000000000      1.439600000000000      0.758200000000000
H       2.689800000000000      0.193000000000000      1.471700000000000
H       2.184600000000000     -1.904000000000000      0.052000000000000
H       2.873100000000000     -1.965400000000000     -1.568600000000000
H      -4.705900000000000     -1.004600000000000      0.972900000000000
H      -3.520900000000000     -2.315900000000000      0.979200000000000
H      -4.944700000000000      0.987300000000000     -0.536400000000000
H      -3.751200000000000      2.145600000000000     -1.132500000000000
H       4.554200000000000     -1.222200000000000      1.147900000000000
H       4.860700000000000     -1.888100000000000     -0.449900000000000
H      -4.842400000000000     -3.512800000000000     -0.736100000000000
H      -6.006800000000000     -2.186500000000000     -0.772200000000000
H      -3.985900000000000      3.459600000000000      0.944700000000000
H      -5.154500000000000      2.288000000000000      1.559200000000000
H       6.015500000000000      0.153200000000000     -1.188700000000000
H       5.743900000000000      0.894800000000000      0.381400000000000
H      -5.341300000000000     -3.894900000000000      1.685200000000000
H      -6.484500000000000     -2.550400000000000      1.669800000000000
H      -5.484000000000000      3.946700000000000     -0.998200000000000
H      -6.645700000000000      2.754700000000000     -0.411600000000000
H       7.334100000000000     -1.634100000000000     -0.161100000000000
H       7.080900000000000     -0.993300000000000      1.455100000000000
H      -7.880100000000000     -3.744000000000000     -0.026900000000000
H      -6.732100000000000     -5.097500000000000     -0.015000000000000
H      -7.663300000000000     -4.710800000000000      1.442200000000000
H      -6.960900000000000      4.080200000000000      1.684800000000000
H      -5.792200000000000      5.280300000000000      1.098600000000000
H      -7.323900000000000      5.040300000000000      0.240400000000000
H       9.616700000000000     -1.369200000000000     -0.500900000000000
H       9.714499999999999     -1.094100000000000      1.253200000000000
H      10.455800000000000      0.046800000000000      0.109500000000000
H       7.491100000000000      1.903100000000000      1.097700000000000
H       9.236599999999999      1.880000000000000      1.063000000000000
H       8.378500000000001      0.857900000000000      2.229500000000000
