77

N      -4.438500000000000      0.584100000000000     -1.523700000000000
N       4.413800000000000      0.591100000000000      1.537300000000000
C      -1.224100000000000      0.660900000000000      0.225600000000000
C       1.238300000000000      0.655900000000000     -0.282000000000000
C       0.011900000000000      1.516500000000000     -0.050100000000000
C      -2.784600000000000     -1.103500000000000     -0.733000000000000
C      -3.695100000000000      0.713400000000000      0.823900000000000
C       3.721800000000000      0.683200000000000     -0.827700000000000
C       2.766700000000000     -1.100500000000000      0.740900000000000
C      -1.534600000000000     -0.239900000000000     -0.972100000000000
C      -2.429000000000000      1.544700000000000      0.556700000000000
C       2.455500000000000      1.526400000000000     -0.602500000000000
C       1.517200000000000     -0.225400000000000      0.937800000000000
C      -4.008100000000000     -0.219800000000000     -0.375100000000000
C       4.003100000000000     -0.230400000000000      0.394000000000000
C      -3.031200000000000     -1.980100000000000     -1.967000000000000
C      -4.861500000000000      1.656800000000000      1.143900000000000
C       4.900600000000000      1.613800000000000     -1.138900000000000
C       2.981200000000000     -1.956500000000000      1.995100000000000
C      -1.819300000000000     -2.863900000000000     -2.240300000000000
C      -4.286300000000000     -2.824600000000000     -1.775300000000000
C      -4.529000000000000      2.518400000000000      2.357000000000000
C      -6.139200000000000      0.859000000000000      1.378800000000000
C       4.599600000000000      2.455700000000000     -2.374000000000000
C       6.178100000000000      0.804400000000000     -1.332200000000000
C       4.234700000000000     -2.811700000000000      1.845400000000000
C       1.758100000000000     -2.828100000000000      2.257800000000000
H      -1.071600000000000      0.038400000000000      1.113200000000000
H       1.094300000000000      0.015200000000000     -1.158900000000000
H       0.185200000000000      2.193200000000000      0.797000000000000
H      -0.166200000000000      2.155700000000000     -0.924700000000000
H      -2.586100000000000     -1.754700000000000      0.130900000000000
H      -3.504000000000000      0.074900000000000      1.698600000000000
H       3.545300000000000      0.030400000000000     -1.695000000000000
H       2.582600000000000     -1.765800000000000     -0.115500000000000
H      -0.688800000000000     -0.913800000000000     -1.113900000000000
H      -1.629500000000000      0.354000000000000     -1.889300000000000
H      -2.158700000000000      2.124800000000000      1.445800000000000
H      -2.600500000000000      2.270400000000000     -0.248400000000000
H       2.208500000000000      2.097200000000000     -1.504200000000000
H       2.617900000000000      2.258400000000000      0.199300000000000
H       1.608200000000000      0.388000000000000      1.843100000000000
H       0.668700000000000     -0.894700000000000      1.078400000000000
H      -4.831800000000000     -0.878300000000000     -0.083700000000000
H       4.825800000000000     -0.903600000000000      0.133800000000000
H      -3.175900000000000     -1.362900000000000     -2.862400000000000
H      -5.047000000000000      2.344000000000000      0.308400000000000
H       5.071000000000000      2.325200000000000     -0.321600000000000
H       3.107400000000000     -1.326800000000000      2.884400000000000
H      -4.763000000000000     -0.014300000000000     -2.279800000000000
H      -3.665600000000000      1.129700000000000     -1.897700000000000
H       4.625900000000000      0.002400000000000      2.340100000000000
H       5.284200000000000      1.078000000000000      1.334500000000000
H      -1.481800000000000     -3.382500000000000     -1.336400000000000
H      -2.061700000000000     -3.630200000000000     -2.985900000000000
H      -0.979900000000000     -2.298000000000000     -2.655700000000000
H      -5.200900000000000     -2.225300000000000     -1.782000000000000
H      -4.390300000000000     -3.549200000000000     -2.591100000000000
H      -4.249300000000000     -3.389800000000000     -0.837500000000000
H      -3.785900000000000      3.287400000000000      2.125900000000000
H      -5.419500000000000      3.054800000000000      2.704400000000000
H      -4.162100000000000      1.915400000000000      3.194600000000000
H      -6.937200000000000      1.511200000000000      1.751900000000000
H      -6.522000000000000      0.405600000000000      0.459800000000000
H      -5.988200000000000      0.067600000000000      2.120900000000000
H       4.246500000000000      1.840000000000000     -3.208200000000000
H       5.501100000000000      2.979900000000000     -2.712200000000000
H       3.857100000000000      3.233600000000000     -2.173000000000000
H       6.038800000000000      0.007000000000000     -2.070400000000000
H       6.988600000000000      1.447400000000000     -1.694600000000000
H       6.539700000000000      0.355500000000000     -0.403200000000000
H       4.315800000000000     -3.523700000000000      2.674800000000000
H       5.152500000000000     -2.217400000000000      1.863800000000000
H       4.215500000000000     -3.391600000000000      0.916200000000000
H       0.914400000000000     -2.250600000000000      2.647600000000000
H       1.980400000000000     -3.584100000000000      3.019900000000000
H       1.435300000000000     -3.358800000000000      1.355700000000000
