78

N       1.571300000000000      2.250700000000000      0.175200000000000
N       6.412800000000000     -2.283700000000000     -0.150100000000000
C       2.862200000000000      0.258400000000000     -0.575000000000000
C       4.785100000000000     -0.713500000000000      1.002100000000000
C       3.726600000000000      0.385000000000000      0.696400000000000
C       5.530400000000000     -1.121300000000000     -0.316200000000000
C       3.700700000000000     -0.214900000000000     -1.781400000000000
C       4.580100000000000     -1.421100000000000     -1.481400000000000
C       2.257700000000000      1.647300000000000     -0.970200000000000
C       1.682900000000000     -0.715000000000000     -0.332700000000000
C       3.542500000000000      1.465600000000000      1.487100000000000
C       5.854900000000000     -0.224100000000000      2.023000000000000
C       4.088800000000000     -1.924200000000000      1.668100000000000
C       2.542100000000000      2.559100000000000      1.229200000000000
C       0.830900000000000      3.447500000000000     -0.217100000000000
C       7.490200000000000     -2.245000000000000     -1.135200000000000
C       5.646600000000000     -3.521100000000000     -0.271600000000000
C      -0.491500000000000      3.102100000000000     -0.904300000000000
C      -1.428200000000000      2.270500000000000     -0.022700000000000
C      -2.764000000000000      2.010700000000000     -0.724700000000000
C      -3.689400000000000      1.156100000000000      0.144300000000000
C      -5.030400000000000      0.838800000000000     -0.523700000000000
C      -5.985300000000000      0.046300000000000      0.373400000000000
C      -7.332100000000000     -0.178900000000000     -0.319100000000000
C      -8.322600000000000     -0.987200000000000      0.524200000000000
C      -9.641500000000001     -1.275600000000000     -0.196400000000000
C     -10.561900000000000     -2.144900000000000      0.661700000000000
C     -11.858900000000000     -2.467300000000000     -0.063200000000000
H       6.138500000000000     -0.247900000000000     -0.597900000000000
H       3.042200000000000     -0.450600000000000     -2.627800000000000
H       4.353200000000000      0.600300000000000     -2.123800000000000
H       5.126900000000000     -1.651000000000000     -2.403000000000000
H       3.903500000000000     -2.260400000000000     -1.297100000000000
H       1.569500000000000      1.496500000000000     -1.810400000000000
H       3.046400000000000      2.321000000000000     -1.336200000000000
H       1.178000000000000     -0.513400000000000      0.619000000000000
H       1.984700000000000     -1.763200000000000     -0.329800000000000
H       0.931800000000000     -0.623000000000000     -1.126600000000000
H       4.133200000000000      1.611500000000000      2.384900000000000
H       5.421800000000000     -0.029900000000000      3.010900000000000
H       6.348800000000000      0.690800000000000      1.675500000000000
H       6.637200000000000     -0.976700000000000      2.175900000000000
H       3.374100000000000     -2.437300000000000      1.027000000000000
H       3.499500000000000     -1.575000000000000      2.527900000000000
H       4.802600000000000     -2.638200000000000      2.093300000000000
H       1.997500000000000      2.746600000000000      2.162500000000000
H       3.105600000000000      3.470900000000000      0.989800000000000
H       1.432500000000000      4.099600000000000     -0.863100000000000
H       0.583300000000000      4.039700000000000      0.674300000000000
H       8.182200000000000     -3.077500000000000     -0.961000000000000
H       8.084800000000000     -1.330700000000000     -1.025700000000000
H       7.151200000000000     -2.313000000000000     -2.173600000000000
H       6.286900000000000     -4.330000000000000      0.107000000000000
H       5.443100000000000     -3.798400000000000     -1.314900000000000
H       4.724800000000000     -3.649600000000000      0.281300000000000
H      -0.993100000000000      4.043200000000000     -1.164000000000000
H      -0.316300000000000      2.582300000000000     -1.852800000000000
H      -0.960100000000000      1.310000000000000      0.222500000000000
H      -1.607100000000000      2.795800000000000      0.923300000000000
H      -2.585300000000000      1.499600000000000     -1.678400000000000
H      -3.253700000000000      2.964500000000000     -0.954500000000000
H      -3.875100000000000      1.678600000000000      1.091000000000000
H      -3.186500000000000      0.214200000000000      0.396300000000000
H      -4.847900000000000      0.276600000000000     -1.447800000000000
H      -5.511400000000000      1.780600000000000     -0.816100000000000
H      -5.532600000000000     -0.919300000000000      0.628100000000000
H      -6.144600000000000      0.588400000000000      1.313200000000000
H      -7.163300000000000     -0.701400000000000     -1.269000000000000
H      -7.781900000000000      0.790500000000000     -0.566800000000000
H      -7.852800000000000     -1.937600000000000      0.807100000000000
H      -8.527400000000000     -0.446100000000000      1.456200000000000
H      -9.435000000000000     -1.785800000000000     -1.145000000000000
H     -10.141600000000000     -0.330500000000000     -0.439400000000000
H     -10.791700000000001     -1.628600000000000      1.601000000000000
H     -10.055199999999999     -3.081600000000000      0.921500000000000
H     -12.502200000000000     -3.087600000000000      0.568700000000000
H     -11.664300000000001     -3.014700000000000     -0.991000000000000
H     -12.406800000000000     -1.552800000000000     -0.311800000000000
