78

N       0.694500000000000     -0.155300000000000     -0.903200000000000
N      -0.322000000000000      0.073500000000000      0.090400000000000
C       2.614200000000000      0.558400000000000      0.517000000000000
C      -2.681400000000000      0.523100000000000      0.488400000000000
C       1.960300000000000     -0.579700000000000     -0.275400000000000
C      -1.650400000000000      0.061300000000000     -0.546200000000000
C       3.982000000000000      0.100200000000000      1.051500000000000
C       2.593900000000000      1.876600000000000     -0.272000000000000
C      -2.341800000000000      1.917300000000000      1.037200000000000
C      -4.101100000000000      0.334500000000000     -0.073600000000000
C       1.841600000000000     -1.855500000000000      0.589100000000000
C      -2.034100000000000     -1.317500000000000     -1.132400000000000
C       4.836100000000000      1.195800000000000      1.692300000000000
C       3.371000000000000      1.930200000000000     -1.585700000000000
C      -2.344500000000000      3.087200000000000      0.055200000000000
C      -5.225700000000000      0.938300000000000      0.769900000000000
C       1.353600000000000     -3.080400000000000     -0.196400000000000
C      -2.038100000000000     -2.472600000000000     -0.120000000000000
C       5.980800000000000      1.703100000000000      0.812400000000000
C       4.884100000000000      1.728500000000000     -1.517300000000000
C      -3.666800000000000      3.427300000000000     -0.630800000000000
C      -5.791900000000000      2.251100000000000      0.224200000000000
C       5.591900000000000      2.523300000000000     -0.419400000000000
C      -4.880900000000000      3.478000000000000      0.297300000000000
C       0.876100000000000     -4.193500000000000      0.744200000000000
C      -1.992700000000000     -3.834100000000000     -0.826300000000000
C       0.003800000000000     -5.245500000000000      0.050900000000000
C      -1.512500000000000     -4.973400000000000      0.078800000000000
H       2.001300000000000      0.749900000000000      1.411000000000000
H      -2.616900000000000     -0.146400000000000      1.360100000000000
H       2.626400000000000     -0.837000000000000     -1.110000000000000
H      -1.652300000000000      0.772600000000000     -1.383400000000000
H       4.552800000000000     -0.453000000000000      0.298700000000000
H       3.797900000000000     -0.613800000000000      1.864100000000000
H       2.959200000000000      2.678500000000000      0.380000000000000
H       1.564500000000000      2.196900000000000     -0.470300000000000
H      -1.379300000000000      1.911800000000000      1.560200000000000
H      -3.038100000000000      2.148500000000000      1.851700000000000
H      -4.321200000000000     -0.739100000000000     -0.101800000000000
H      -4.174400000000000      0.674600000000000     -1.111800000000000
H       2.807800000000000     -2.149800000000000      1.008700000000000
H       1.180600000000000     -1.662100000000000      1.443000000000000
H      -2.985500000000000     -1.287900000000000     -1.674500000000000
H      -1.301800000000000     -1.550200000000000     -1.917900000000000
H       0.807200000000000      0.655000000000000     -1.505800000000000
H      -0.128900000000000      0.979300000000000      0.506600000000000
H       5.305700000000000      0.764700000000000      2.587400000000000
H       4.226100000000000      2.028300000000000      2.058700000000000
H       3.190900000000000      2.921300000000000     -2.024000000000000
H       2.953700000000000      1.216500000000000     -2.305000000000000
H      -1.572000000000000      2.943800000000000     -0.708700000000000
H      -2.029700000000000      3.976700000000000      0.618100000000000
H      -4.937700000000000      1.043200000000000      1.821200000000000
H      -6.058300000000000      0.221100000000000      0.768200000000000
H       0.558000000000000     -2.797600000000000     -0.885100000000000
H       2.168600000000000     -3.459100000000000     -0.826000000000000
H      -1.196300000000000     -2.373600000000000      0.566800000000000
H      -2.936100000000000     -2.429900000000000      0.506400000000000
H       6.607300000000000      0.856600000000000      0.504100000000000
H       6.621800000000000      2.336500000000000      1.439500000000000
H       5.288100000000000      2.055100000000000     -2.485300000000000
H       5.128700000000000      0.663700000000000     -1.457200000000000
H      -3.843200000000000      2.761900000000000     -1.481100000000000
H      -3.540900000000000      4.423600000000000     -1.076500000000000
H      -6.699300000000000      2.481300000000000      0.797900000000000
H      -6.123300000000000      2.103600000000000     -0.811600000000000
H       5.020600000000000      3.411800000000000     -0.129500000000000
H       6.529500000000000      2.904600000000000     -0.846300000000000
H      -4.591100000000000      3.685000000000000      1.333200000000000
H      -5.492200000000000      4.336500000000000     -0.012500000000000
H       0.337000000000000     -3.784100000000000      1.606200000000000
H       1.767300000000000     -4.689300000000000      1.150000000000000
H      -1.370300000000000     -3.799500000000000     -1.727600000000000
H      -3.010200000000000     -4.062400000000000     -1.169100000000000
H       0.160100000000000     -6.196000000000000      0.578200000000000
H       0.341800000000000     -5.409700000000000     -0.979200000000000
H      -2.001400000000000     -5.893200000000000     -0.268700000000000
H      -1.852500000000000     -4.818600000000000      1.109600000000000
