78

N       0.833300000000000     -0.952200000000000      0.286200000000000
N       0.734700000000000      0.853200000000000     -1.003300000000000
C      -0.650200000000000     -0.403700000000000      2.206500000000000
C      -0.836400000000000      2.332500000000000      0.314400000000000
C      -0.005100000000000     -0.082000000000000      0.924200000000000
C      -0.050200000000000      1.024700000000000      0.109400000000000
C       2.175200000000000     -1.023100000000000     -1.796800000000000
C       1.252500000000000     -0.347300000000000     -0.866000000000000
C      -2.020400000000000     -1.190400000000000      2.049300000000000
C      -2.374600000000000      2.068000000000000      0.366000000000000
C       3.583200000000000     -1.368100000000000     -1.152700000000000
C      -0.954400000000000      0.817800000000000      3.156000000000000
C       0.273700000000000     -1.332800000000000      3.076000000000000
C      -0.550600000000000      3.266000000000000     -0.888900000000000
C      -0.422500000000000      3.119000000000000      1.581500000000000
C      -2.976300000000000      1.464400000000000     -0.911900000000000
C      -1.984500000000000     -2.304800000000000      0.992800000000000
C       1.648000000000000     -2.359400000000000     -2.443100000000000
C       2.485700000000000     -0.102600000000000     -3.031800000000000
C       4.388400000000000     -0.137300000000000     -0.709600000000000
C      -4.492200000000000      1.292600000000000     -0.777900000000000
C      -3.301000000000000     -3.085100000000000      0.972900000000000
C       5.773100000000000     -0.542100000000000     -0.195300000000000
C      -5.091900000000000      0.652600000000000     -2.029700000000000
C       6.563900000000000      0.673600000000000      0.287500000000000
C      -3.264100000000000     -4.214100000000000     -0.044700000000000
C      -6.601200000000000      0.510500000000000     -1.914200000000000
C       5.863700000000000      1.370300000000000      1.443100000000000
H      -2.825800000000000     -0.503800000000000      1.775100000000000
H      -2.310800000000000     -1.613400000000000      3.020400000000000
H      -2.668300000000000      1.431500000000000      1.189900000000000
H      -2.879100000000000      3.027600000000000      0.549900000000000
H       1.093100000000000     -1.880600000000000      0.590500000000000
H       4.182800000000000     -1.934400000000000     -1.878200000000000
H       3.434600000000000     -2.031000000000000     -0.290100000000000
H      -1.822300000000000      1.403200000000000      2.884400000000000
H      -0.059500000000000      1.410100000000000      3.350100000000000
H      -1.237500000000000      0.428400000000000      4.145600000000000
H       0.470400000000000     -2.298500000000000      2.599700000000000
H       1.242500000000000     -0.851800000000000      3.258400000000000
H      -0.175700000000000     -1.550800000000000      4.052200000000000
H      -1.173500000000000      4.167700000000000     -0.851200000000000
H      -0.727800000000000      2.783500000000000     -1.856200000000000
H       0.497800000000000      3.591300000000000     -0.891800000000000
H      -0.271500000000000      4.179700000000000      1.334000000000000
H      -1.183100000000000      3.168800000000000      2.361100000000000
H       0.545500000000000      2.794200000000000      1.974400000000000
H      -2.783600000000000      2.109900000000000     -1.774500000000000
H      -2.517700000000000      0.491200000000000     -1.119800000000000
H      -1.164000000000000     -3.000300000000000      1.198200000000000
H      -1.820800000000000     -1.879400000000000     -0.003600000000000
H       2.355900000000000     -2.765300000000000     -3.174000000000000
H       1.483000000000000     -3.118500000000000     -1.670200000000000
H       0.689500000000000     -2.190700000000000     -2.947100000000000
H       3.271800000000000     -0.527800000000000     -3.666100000000000
H       2.790600000000000      0.906400000000000     -2.734300000000000
H       1.588700000000000      0.018000000000000     -3.652300000000000
H       4.530600000000000      0.562600000000000     -1.537900000000000
H       3.820800000000000      0.381100000000000      0.068600000000000
H      -4.716800000000000      0.666300000000000      0.094200000000000
H      -4.958200000000000      2.270000000000000     -0.603300000000000
H      -4.130000000000000     -2.409100000000000      0.732600000000000
H      -3.500900000000000     -3.505000000000000      1.965600000000000
H       5.671700000000000     -1.266200000000000      0.622200000000000
H       6.334500000000000     -1.037800000000000     -0.996200000000000
H      -4.855600000000000      1.262000000000000     -2.909800000000000
H      -4.647700000000000     -0.336600000000000     -2.190800000000000
H       6.719200000000000      1.381900000000000     -0.534100000000000
H       7.554500000000000      0.339900000000000      0.617500000000000
H      -4.214500000000000     -4.756900000000000     -0.043300000000000
H      -3.095900000000000     -3.826100000000000     -1.054400000000000
H      -2.465700000000000     -4.926100000000000      0.187600000000000
H      -7.078600000000000      1.487100000000000     -1.785400000000000
H      -6.871300000000000     -0.119700000000000     -1.060800000000000
H      -7.008900000000000      0.049700000000000     -2.819300000000000
H       5.584000000000000      0.661400000000000      2.228900000000000
H       4.968000000000000      1.906300000000000      1.116600000000000
H       6.535000000000000      2.113400000000000      1.886700000000000
