78

N      -0.525900000000000      1.506400000000000      0.540800000000000
N       0.547900000000000      0.268700000000000     -0.958200000000000
C      -1.936900000000000     -0.129600000000000      1.774600000000000
C      -0.357000000000000     -2.037700000000000     -0.453500000000000
C      -0.955000000000000      0.224100000000000      0.737800000000000
C      -0.278500000000000     -0.521300000000000     -0.198800000000000
C       1.036100000000000      2.715400000000000     -0.956800000000000
C      -3.272700000000000     -0.763500000000000      1.195800000000000
C       0.375200000000000      1.483800000000000     -0.487200000000000
C       0.984800000000000     -2.585800000000000     -1.034800000000000
C       2.620100000000000      2.639200000000000     -0.913000000000000
C      -2.386500000000000      1.148400000000000      2.573000000000000
C      -1.435800000000000     -1.117100000000000      2.896900000000000
C      -1.473400000000000     -2.299400000000000     -1.495900000000000
C      -0.732100000000000     -2.863900000000000      0.800400000000000
C      -4.069500000000000      0.181400000000000      0.283900000000000
C       2.222700000000000     -2.345500000000000     -0.157600000000000
C       0.664700000000000      3.004500000000000     -2.455900000000000
C       0.638600000000000      4.041800000000000     -0.205700000000000
C       3.195000000000000      2.327900000000000      0.476900000000000
C      -5.392300000000000     -0.457800000000000     -0.148700000000000
C       3.489400000000000     -2.872600000000000     -0.838100000000000
C       4.716000000000000      2.168200000000000      0.418900000000000
C      -6.170800000000000      0.459700000000000     -1.091200000000000
C       4.719300000000000     -2.675500000000000      0.047900000000000
C       5.292500000000000      1.824400000000000      1.783000000000000
C      -7.500000000000000     -0.156900000000000     -1.496800000000000
C       5.984100000000000     -3.167300000000000     -0.637600000000000
H      -3.125000000000000     -1.688900000000000      0.655700000000000
H      -3.918300000000000     -1.029400000000000      2.045700000000000
H       0.888500000000000     -3.662500000000000     -1.229400000000000
H       1.166600000000000     -2.121800000000000     -2.014300000000000
H      -0.807200000000000      2.326400000000000      1.059400000000000
H       2.947300000000000      1.851100000000000     -1.605300000000000
H       3.051700000000000      3.578100000000000     -1.283800000000000
H      -1.552800000000000      1.550500000000000      3.163400000000000
H      -2.740100000000000      1.959700000000000      1.928500000000000
H      -3.197800000000000      0.916100000000000      3.273800000000000
H      -0.343000000000000     -1.135500000000000      2.957900000000000
H      -1.859200000000000     -2.120800000000000      2.854300000000000
H      -1.760400000000000     -0.764300000000000      3.886000000000000
H      -1.630400000000000     -3.373400000000000     -1.648100000000000
H      -1.196000000000000     -1.871500000000000     -2.467700000000000
H      -2.432200000000000     -1.851500000000000     -1.236300000000000
H      -0.534800000000000     -3.923800000000000      0.574800000000000
H      -0.066800000000000     -2.661600000000000      1.638200000000000
H      -1.780500000000000     -2.892300000000000      1.056600000000000
H      -4.307300000000000      1.118200000000000      0.795700000000000
H      -3.476700000000000      0.433300000000000     -0.602800000000000
H       2.354200000000000     -1.280300000000000      0.056900000000000
H       2.097500000000000     -2.853900000000000      0.804900000000000
H       1.152000000000000      3.913900000000000     -2.825200000000000
H      -0.418800000000000      3.126300000000000     -2.571300000000000
H       0.971700000000000      2.172700000000000     -3.100800000000000
H       1.187400000000000      4.905300000000000     -0.598200000000000
H      -0.432300000000000      4.247900000000000     -0.320400000000000
H       0.844500000000000      3.971900000000000      0.867500000000000
H       2.755800000000000      1.403800000000000      0.869500000000000
H       2.944200000000000      3.131200000000000      1.177900000000000
H      -5.193900000000000     -1.412600000000000     -0.650700000000000
H      -6.000300000000000     -0.678200000000000      0.737200000000000
H       3.369700000000000     -3.938700000000000     -1.066300000000000
H       3.635700000000000     -2.351500000000000     -1.792100000000000
H       5.173800000000000      3.095700000000000      0.056000000000000
H       4.980600000000000      1.375300000000000     -0.290500000000000
H      -5.576800000000000      0.660400000000000     -1.990400000000000
H      -6.357300000000000      1.423700000000000     -0.603600000000000
H       4.834700000000000     -1.613300000000000      0.293900000000000
H       4.587900000000000     -3.215000000000000      0.993100000000000
H       6.379800000000000      1.717100000000000      1.718900000000000
H       5.070600000000000      2.610200000000000      2.512100000000000
H       4.879800000000000      0.881700000000000      2.156600000000000
H      -8.131800000000000     -0.338500000000000     -0.621500000000000
H      -7.348600000000000     -1.109200000000000     -2.015200000000000
H      -8.039500000000000      0.515100000000000     -2.171600000000000
H       6.162000000000000     -2.622400000000000     -1.570200000000000
H       5.914300000000000     -4.234600000000000     -0.870600000000000
H       6.850800000000000     -3.017600000000000      0.013800000000000
