78

N       3.530600000000000      1.042100000000000     -0.323000000000000
N      -3.656700000000000      0.936700000000000      0.321300000000000
C       0.001800000000000     -1.468900000000000      0.005400000000000
C       1.399400000000000     -0.823200000000000     -0.058200000000000
C      -1.036300000000000     -0.355700000000000     -0.133700000000000
C      -0.205500000000000     -2.182300000000000      1.360900000000000
C      -0.183800000000000     -2.476200000000000     -1.152200000000000
C       1.643100000000000     -0.164200000000000     -1.422600000000000
C       1.601100000000000      0.172200000000000      1.076700000000000
C      -1.425000000000000      0.195800000000000      1.232800000000000
C      -2.306600000000000     -0.879200000000000     -0.793000000000000
C       2.529100000000000      1.118800000000000     -1.411200000000000
C       3.018800000000000      0.807600000000000      1.054000000000000
C      -2.485000000000000      1.326400000000000      1.156900000000000
C      -3.404400000000000      0.205700000000000     -0.953500000000000
C       0.633200000000000     -3.450900000000000      1.514500000000000
C       0.654800000000000     -3.744500000000000     -0.994500000000000
C       0.414700000000000     -4.414700000000000      0.353600000000000
C       3.214700000000000      1.162400000000000     -2.805000000000000
C       1.643500000000000      2.385200000000000     -1.332100000000000
C       2.963400000000000      2.078500000000000      1.935300000000000
C       3.996500000000000     -0.187800000000000      1.730200000000000
C      -1.796300000000000      2.638500000000000      0.715700000000000
C      -2.956200000000000      1.539800000000000      2.622900000000000
C      -4.688900000000000     -0.573100000000000     -1.354000000000000
C      -3.045500000000000      1.117100000000000     -2.149800000000000
C       4.624500000000000      2.010000000000000     -0.407700000000000
C      -4.679000000000000      1.984100000000000      0.210600000000000
H       2.158600000000000     -1.605300000000000      0.057200000000000
H      -0.678300000000000      0.477200000000000     -0.736900000000000
H      -1.248600000000000     -2.521300000000000      1.435100000000000
H      -0.020300000000000     -1.575800000000000      2.249300000000000
H       0.003000000000000     -2.041500000000000     -2.139400000000000
H      -1.198700000000000     -2.887400000000000     -1.174500000000000
H       0.740200000000000      0.040500000000000     -2.005500000000000
H       2.162500000000000     -0.930800000000000     -2.019200000000000
H       1.450300000000000     -0.268200000000000      2.064700000000000
H       0.918200000000000      1.009500000000000      0.965100000000000
H      -0.625400000000000      0.530900000000000      1.886900000000000
H      -1.933600000000000     -0.592700000000000      1.805400000000000
H      -2.721900000000000     -1.710500000000000     -0.206200000000000
H      -2.111900000000000     -1.240400000000000     -1.809300000000000
H       0.365900000000000     -3.952100000000000      2.452500000000000
H       1.696200000000000     -3.196300000000000      1.592300000000000
H       1.719300000000000     -3.510500000000000     -1.108100000000000
H       0.407000000000000     -4.449000000000000     -1.797600000000000
H       1.082200000000000     -5.277300000000000      0.460400000000000
H      -0.611200000000000     -4.802000000000000      0.390400000000000
H       3.728800000000000      2.113000000000000     -2.985800000000000
H       2.476200000000000      1.047600000000000     -3.608100000000000
H       3.945900000000000      0.352900000000000     -2.915600000000000
H       2.242700000000000      3.298100000000000     -1.422800000000000
H       1.071700000000000      2.469300000000000     -0.409700000000000
H       0.917300000000000      2.401600000000000     -2.154100000000000
H       3.958400000000000      2.491600000000000      2.132900000000000
H       2.517500000000000      1.854900000000000      2.912100000000000
H       2.360100000000000      2.867500000000000      1.475300000000000
H       3.644300000000000     -0.470400000000000      2.729400000000000
H       4.997400000000000      0.238400000000000      1.857800000000000
H       4.105400000000000     -1.109700000000000      1.148000000000000
H      -2.475100000000000      3.496200000000000      0.772200000000000
H      -1.403500000000000      2.593800000000000     -0.299800000000000
H      -0.948600000000000      2.869400000000000      1.372600000000000
H      -3.559700000000000      2.445500000000000      2.742300000000000
H      -2.101300000000000      1.649000000000000      3.301700000000000
H      -3.549300000000000      0.689200000000000      2.979500000000000
H      -5.491200000000000      0.087200000000000     -1.698500000000000
H      -5.072700000000000     -1.165000000000000     -0.514500000000000
H      -4.486700000000000     -1.269500000000000     -2.177400000000000
H      -2.923600000000000      0.525000000000000     -3.065400000000000
H      -2.112700000000000      1.663700000000000     -2.007900000000000
H      -3.833600000000000      1.847700000000000     -2.360500000000000
H       5.370300000000000      1.850100000000000      0.377800000000000
H       4.273300000000000      3.043900000000000     -0.332200000000000
H       5.186500000000000      1.903300000000000     -1.340400000000000
H      -4.991400000000000      2.355500000000000      1.190300000000000
H      -5.602500000000000      1.610300000000000     -0.239700000000000
H      -4.341000000000000      2.840900000000000     -0.380300000000000
