78

N      -1.148000000000000      2.643600000000000      0.225500000000000
N      -4.272400000000000     -3.183800000000000     -0.155300000000000
C      -2.229000000000000      0.496700000000000      0.858700000000000
C      -3.568100000000000     -0.881400000000000     -0.973500000000000
C      -2.717800000000000      0.352800000000000     -0.588000000000000
C      -3.440900000000000     -2.000300000000000      0.109400000000000
C      -3.284700000000000     -0.073300000000000      1.824600000000000
C      -3.707500000000000     -1.516600000000000      1.544200000000000
C      -2.036400000000000      2.008700000000000      1.206000000000000
C      -0.866200000000000     -0.211900000000000      1.057100000000000
C      -2.476500000000000      1.356900000000000     -1.458400000000000
C      -5.040100000000000     -0.429800000000000     -1.134800000000000
C      -3.094100000000000     -1.462700000000000     -2.331300000000000
C      -1.763300000000000      2.633700000000000     -1.106500000000000
C      -0.792000000000000      4.001800000000000      0.627400000000000
C      -5.597600000000000     -3.007000000000000      0.429300000000000
C      -3.626500000000000     -4.379700000000000      0.375500000000000
C       0.509600000000000      4.468900000000000     -0.026400000000000
C       1.714700000000000      3.598600000000000      0.343700000000000
C       2.977300000000000      4.060700000000000     -0.388700000000000
C       4.187400000000000      3.209300000000000      0.002300000000000
C       4.028900000000000      1.727500000000000     -0.350900000000000
C       5.207200000000000      0.863100000000000      0.106000000000000
C       4.961100000000000     -0.614800000000000     -0.209600000000000
C       6.118900000000000     -1.527000000000000      0.206000000000000
C       5.905300000000000     -2.993400000000000     -0.175600000000000
C       7.120100000000000     -3.844600000000000      0.197000000000000
C       6.930600000000000     -5.296100000000000     -0.213900000000000
H      -2.395600000000000     -2.327700000000000      0.052200000000000
H      -2.933900000000000      0.001500000000000      2.862400000000000
H      -4.184500000000000      0.556900000000000      1.775800000000000
H      -4.739500000000000     -1.539500000000000      1.897000000000000
H      -3.157400000000000     -2.170500000000000      2.234800000000000
H      -1.603600000000000      2.083200000000000      2.212600000000000
H      -3.003800000000000      2.530300000000000      1.239300000000000
H      -0.128800000000000      0.110500000000000      0.312700000000000
H      -0.923700000000000     -1.299400000000000      0.993400000000000
H      -0.453500000000000      0.015900000000000      2.047300000000000
H      -2.856500000000000      1.307100000000000     -2.474400000000000
H      -5.112800000000000      0.410400000000000     -1.837600000000000
H      -5.475800000000000     -0.074100000000000     -0.196100000000000
H      -5.668500000000000     -1.213500000000000     -1.569900000000000
H      -2.029300000000000     -1.721600000000000     -2.298700000000000
H      -3.241600000000000     -0.760100000000000     -3.158400000000000
H      -3.648000000000000     -2.369400000000000     -2.598800000000000
H      -0.986000000000000      2.797200000000000     -1.861500000000000
H      -2.496400000000000      3.444700000000000     -1.209000000000000
H      -0.629000000000000      4.041300000000000      1.712800000000000
H      -1.599700000000000      4.714900000000000      0.418800000000000
H      -6.268900000000000     -3.712800000000000     -0.078400000000000
H      -6.088300000000000     -2.043300000000000      0.311700000000000
H      -5.647100000000000     -3.295800000000000      1.488000000000000
H      -4.236300000000000     -5.264400000000000      0.158200000000000
H      -3.466200000000000     -4.342700000000000      1.458600000000000
H      -2.659600000000000     -4.550000000000000     -0.111800000000000
H       0.395000000000000      4.504200000000000     -1.116300000000000
H       0.706100000000000      5.500100000000000      0.293600000000000
H       1.875700000000000      3.631600000000000      1.427700000000000
H       1.485000000000000      2.563900000000000      0.076300000000000
H       3.184700000000000      5.109000000000000     -0.143300000000000
H       2.823000000000000      4.005800000000000     -1.472900000000000
H       4.367900000000000      3.311000000000000      1.079600000000000
H       5.075700000000000      3.605600000000000     -0.504100000000000
H       3.896900000000000      1.625900000000000     -1.435000000000000
H       3.129600000000000      1.318900000000000      0.120100000000000
H       6.124000000000000      1.201200000000000     -0.391200000000000
H       5.358700000000000      0.985200000000000      1.185200000000000
H       4.788200000000000     -0.726700000000000     -1.287300000000000
H       4.045500000000000     -0.948600000000000      0.294100000000000
H       7.041400000000000     -1.164200000000000     -0.264600000000000
H       6.266000000000000     -1.450600000000000      1.290400000000000
H       5.723300000000000     -3.066800000000000     -1.254700000000000
H       5.011600000000000     -3.378200000000000      0.330200000000000
H       7.291500000000000     -3.794600000000000      1.278400000000000
H       8.017500000000000     -3.448700000000000     -0.292700000000000
H       7.809600000000000     -5.886400000000000      0.063400000000000
H       6.790900000000000     -5.382600000000000     -1.296200000000000
H       6.057700000000000     -5.733100000000000      0.281600000000000
