78

N       3.183900000000000      0.967300000000000      1.103700000000000
N      -2.876100000000000      0.686600000000000     -0.295500000000000
C      -0.450200000000000      1.048100000000000     -0.164400000000000
C       0.546600000000000      3.502400000000000     -0.068100000000000
C      -0.681700000000000      2.564800000000000      0.062600000000000
C       2.043800000000000      1.448100000000000      0.318100000000000
C       0.812800000000000      0.573600000000000      0.587400000000000
C       1.762100000000000      2.911100000000000      0.679600000000000
C      -1.671500000000000      0.286600000000000      0.401300000000000
C      -0.362000000000000      0.690200000000000     -1.659500000000000
C       3.784000000000000     -0.208700000000000      0.474700000000000
C       0.185400000000000      4.859000000000000      0.580900000000000
C       0.900200000000000      3.797600000000000     -1.537400000000000
C      -4.048000000000000     -0.017900000000000      0.223400000000000
C       4.701600000000000      0.208100000000000     -0.680300000000000
C       4.552000000000000     -1.021200000000000      1.522200000000000
C       6.158500000000000     -1.824200000000000     -0.266200000000000
C       5.389800000000000     -1.002700000000000     -1.309800000000000
C       5.239900000000000     -2.232600000000000      0.893100000000000
C      -4.062100000000000     -1.456900000000000     -0.302300000000000
C      -5.334400000000000      0.721600000000000     -0.161200000000000
C      -6.594600000000000     -1.477000000000000     -0.203400000000000
C      -5.302100000000000     -2.212300000000000      0.175300000000000
C      -6.574700000000000     -0.033200000000000      0.316000000000000
C       6.793900000000000     -3.055000000000000     -0.910200000000000
C      -7.815900000000000     -2.224600000000000      0.328500000000000
C       7.591800000000000     -3.857100000000000      0.099300000000000
C      -7.873200000000000     -3.641700000000000     -0.207800000000000
H      -1.077500000000000      2.689200000000000      1.081500000000000
H      -1.464000000000000      2.942000000000000     -0.608700000000000
H       2.286500000000000      1.419000000000000     -0.746500000000000
H       0.605100000000000      0.583300000000000      1.667400000000000
H       0.998100000000000     -0.475100000000000      0.328500000000000
H       1.583600000000000      2.979700000000000      1.762500000000000
H       2.653400000000000      3.521500000000000      0.479300000000000
H      -1.486000000000000     -0.788400000000000      0.299500000000000
H      -1.768200000000000      0.491100000000000      1.476000000000000
H       2.875000000000000      0.746600000000000      2.050000000000000
H      -1.138900000000000      1.188000000000000     -2.250200000000000
H      -0.467700000000000     -0.390600000000000     -1.814000000000000
H       0.598700000000000      0.959900000000000     -2.101000000000000
H       3.016700000000000     -0.880700000000000      0.073200000000000
H      -0.072600000000000      4.739800000000000      1.639400000000000
H       1.024700000000000      5.561700000000000      0.524700000000000
H      -0.672800000000000      5.320600000000000      0.079400000000000
H       1.670600000000000      4.575200000000000     -1.604100000000000
H       1.292200000000000      2.930000000000000     -2.067900000000000
H       0.024200000000000      4.157400000000000     -2.088700000000000
H      -3.027200000000000      1.686600000000000     -0.175800000000000
H      -4.009800000000000     -0.038300000000000      1.321600000000000
H       4.149400000000000      0.731300000000000     -1.468000000000000
H       5.468000000000000      0.905800000000000     -0.317200000000000
H       5.308400000000000     -0.391900000000000      2.009800000000000
H       3.870200000000000     -1.366900000000000      2.309300000000000
H       6.960200000000000     -1.190600000000000      0.138300000000000
H       4.635900000000000     -1.631500000000000     -1.800700000000000
H       6.076000000000000     -0.659900000000000     -2.093500000000000
H       5.804600000000000     -2.735400000000000      1.685100000000000
H       4.478900000000000     -2.940300000000000      0.540000000000000
H      -3.182900000000000     -2.017800000000000      0.031200000000000
H      -4.041700000000000     -1.458000000000000     -1.400300000000000
H      -5.387000000000000      0.846600000000000     -1.250800000000000
H      -5.338000000000000      1.728500000000000      0.274400000000000
H      -6.659800000000000     -1.440300000000000     -1.299800000000000
H      -5.270800000000000     -3.210100000000000     -0.274700000000000
H      -5.249400000000000     -2.346500000000000      1.263300000000000
H      -6.599100000000000     -0.029700000000000      1.413300000000000
H      -7.472100000000000      0.498200000000000     -0.022800000000000
H       6.029800000000000     -3.696900000000000     -1.364800000000000
H       7.463900000000000     -2.736000000000000     -1.717900000000000
H      -7.812800000000000     -2.248900000000000      1.424800000000000
H      -8.726200000000000     -1.693900000000000      0.024100000000000
H       6.946400000000000     -4.390100000000000      0.803600000000000
H       8.186199999999999     -4.616500000000000     -0.420300000000000
H       8.283400000000000     -3.222900000000000      0.663100000000000
H      -7.754900000000000     -3.666900000000000     -1.295700000000000
H      -8.845100000000000     -4.087000000000000      0.030900000000000
H      -7.112800000000000     -4.284100000000000      0.245800000000000
