78

N       3.628400000000000      0.365600000000000      0.284700000000000
N      -3.609800000000000     -0.477800000000000      0.010800000000000
C       2.733600000000000      1.432600000000000      0.810300000000000
C       3.011200000000000     -0.773500000000000     -0.440100000000000
C      -2.742300000000000     -1.471600000000000      0.692100000000000
C      -2.988500000000000      0.787500000000000     -0.467100000000000
C       0.670900000000000      0.059700000000000      0.152600000000000
C      -0.661200000000000     -0.096400000000000      0.144500000000000
C       1.312300000000000      1.414400000000000      0.183100000000000
C       1.606600000000000     -1.110800000000000      0.131500000000000
C      -1.300500000000000     -1.451500000000000      0.114100000000000
C      -1.598500000000000      1.073300000000000      0.165600000000000
C       4.925800000000000      0.802900000000000     -0.219100000000000
C      -4.970600000000000     -0.373300000000000      0.525700000000000
C       2.639500000000000      1.198800000000000      2.337400000000000
C       3.258700000000000      2.881700000000000      0.622100000000000
C       2.923100000000000     -0.531100000000000     -1.964900000000000
C       3.867700000000000     -2.047600000000000     -0.218100000000000
C      -3.281900000000000     -2.899300000000000      0.415000000000000
C      -2.705500000000000     -1.276900000000000      2.225800000000000
C      -3.833700000000000      2.066900000000000     -0.223200000000000
C      -2.850100000000000      0.643400000000000     -2.001900000000000
C       5.928400000000000     -0.348900000000000     -0.173500000000000
C      -5.914700000000000      0.125200000000000     -0.567100000000000
C       7.290600000000000      0.082400000000000     -0.717900000000000
C      -7.352000000000000      0.221800000000000     -0.053900000000000
C       8.304200000000000     -1.048400000000000     -0.643100000000000
C      -8.292000000000000      0.751000000000000     -1.125300000000000
H       1.364100000000000      1.794600000000000     -0.845300000000000
H       0.693200000000000      2.123000000000000      0.747700000000000
H       1.709600000000000     -1.486900000000000      1.158400000000000
H       1.185100000000000     -1.929700000000000     -0.465600000000000
H      -0.701400000000000     -2.178200000000000      0.677400000000000
H      -1.318700000000000     -1.800700000000000     -0.927100000000000
H      -1.158900000000000      1.924400000000000     -0.369900000000000
H      -1.732000000000000      1.389900000000000      1.208100000000000
H       5.358700000000000      1.571100000000000      0.429000000000000
H       4.853600000000000      1.234700000000000     -1.223500000000000
H      -5.020600000000000      0.249400000000000      1.425900000000000
H      -5.353700000000000     -1.350400000000000      0.836100000000000
H       2.235000000000000      0.213900000000000      2.589800000000000
H       3.626600000000000      1.276000000000000      2.809600000000000
H       1.991800000000000      1.945900000000000      2.811000000000000
H       3.455500000000000      3.104500000000000     -0.432600000000000
H       2.516000000000000      3.611700000000000      0.968300000000000
H       4.166800000000000      3.080500000000000      1.201200000000000
H       2.387300000000000     -1.352200000000000     -2.456100000000000
H       2.394700000000000      0.393300000000000     -2.213100000000000
H       3.910500000000000     -0.476000000000000     -2.435900000000000
H       4.414800000000000     -2.066000000000000      0.728800000000000
H       3.191900000000000     -2.910600000000000     -0.105100000000000
H       4.457500000000000     -2.372200000000000     -1.080100000000000
H      -4.232600000000000     -3.102000000000000      0.917400000000000
H      -2.576100000000000     -3.659800000000000      0.770900000000000
H      -3.426500000000000     -3.066000000000000     -0.659200000000000
H      -3.684900000000000     -1.458800000000000      2.682300000000000
H      -2.395200000000000     -0.269400000000000      2.514900000000000
H      -2.004000000000000     -1.979900000000000      2.690500000000000
H      -4.405900000000000      2.076800000000000      0.707000000000000
H      -4.444600000000000      2.381500000000000     -1.073300000000000
H      -3.157900000000000      2.928200000000000     -0.108100000000000
H      -2.222200000000000     -0.205900000000000     -2.288900000000000
H      -3.821200000000000      0.503600000000000     -2.489800000000000
H      -2.395000000000000      1.540700000000000     -2.438200000000000
H       5.706800000000000     -1.113000000000000     -0.899500000000000
H       6.050000000000000     -0.748600000000000      0.838300000000000
H      -5.901400000000000     -0.610000000000000     -1.384900000000000
H      -5.701300000000000      1.067200000000000     -1.043300000000000
H       7.195600000000000      0.417800000000000     -1.757800000000000
H       7.667500000000000      0.933900000000000     -0.139100000000000
H      -7.391400000000000      0.890300000000000      0.814100000000000
H      -7.699400000000000     -0.763800000000000      0.277000000000000
H       9.272800000000000     -0.714100000000000     -1.027800000000000
H       8.446500000000000     -1.381000000000000      0.390100000000000
H       7.981500000000000     -1.907700000000000     -1.239600000000000
H      -9.315000000000000      0.801800000000000     -0.739500000000000
H      -8.000500000000001      1.757000000000000     -1.443900000000000
H      -8.292400000000001      0.098300000000000     -2.004100000000000
