78

N      -0.957200000000000      2.951800000000000      0.084400000000000
N      -3.546800000000000     -1.729400000000000      0.351600000000000
C       1.163300000000000      1.999300000000000     -0.177000000000000
C       3.400500000000000     -0.026000000000000      0.179700000000000
C       2.428800000000000      2.007100000000000     -1.051000000000000
C       0.902200000000000      0.569000000000000      0.360300000000000
C       3.644000000000000      1.405300000000000     -0.343400000000000
C       2.122400000000000     -0.057300000000000      1.043800000000000
C       1.237200000000000      3.021200000000000      0.981700000000000
C      -0.050600000000000      2.507900000000000     -0.974500000000000
C      -0.122200000000000      3.724400000000000      1.003800000000000
C       4.601200000000000     -0.452900000000000      1.045500000000000
C       3.285400000000000     -1.021400000000000     -0.991300000000000
C      -2.082600000000000      3.719000000000000     -0.427100000000000
C       4.422300000000000     -1.874700000000000      1.552500000000000
C       4.574100000000000     -1.057400000000000     -1.796300000000000
C      -3.151700000000000      2.782900000000000     -0.988300000000000
C       5.596400000000000     -2.287600000000000      2.425500000000000
C       4.452600000000000     -2.022400000000000     -2.964800000000000
C      -3.689600000000000      1.844700000000000      0.095600000000000
C      -4.734700000000000      0.882300000000000     -0.473400000000000
C      -5.329600000000000     -0.060400000000000      0.577500000000000
C      -4.276100000000000     -0.894300000000000      1.305700000000000
C      -2.243500000000000     -2.123400000000000      0.904900000000000
C      -4.345500000000000     -2.906700000000000     -0.016700000000000
C      -1.446900000000000     -2.956800000000000     -0.100000000000000
C      -3.617400000000000     -3.765600000000000     -1.052000000000000
C      -2.236100000000000     -4.178500000000000     -0.556900000000000
H       2.239000000000000      1.464700000000000     -1.985000000000000
H       2.671100000000000      3.035100000000000     -1.349900000000000
H       0.068000000000000      0.572100000000000      1.073100000000000
H       0.587300000000000     -0.079500000000000     -0.467100000000000
H       3.882700000000000      2.050600000000000      0.514000000000000
H       4.522300000000000      1.481500000000000     -0.989900000000000
H       1.842100000000000     -1.085200000000000      1.300700000000000
H       2.302600000000000      0.459600000000000      1.994300000000000
H       1.436000000000000      2.544900000000000      1.946800000000000
H       2.025100000000000      3.765700000000000      0.817500000000000
H      -0.488700000000000      1.717400000000000     -1.592800000000000
H       0.236600000000000      3.340200000000000     -1.631300000000000
H       0.003100000000000      4.761700000000000      0.667200000000000
H      -0.548200000000000      3.739500000000000      2.012100000000000
H       5.559600000000000     -0.330600000000000      0.529900000000000
H       4.670300000000000      0.218200000000000      1.913700000000000
H       3.002500000000000     -2.025900000000000     -0.658700000000000
H       2.470000000000000     -0.724400000000000     -1.661600000000000
H      -2.539900000000000      4.297600000000000      0.386600000000000
H      -1.773300000000000      4.444600000000000     -1.189700000000000
H       3.518800000000000     -1.984500000000000      2.158200000000000
H       4.372700000000000     -2.604900000000000      0.741100000000000
H       4.827500000000000     -0.082800000000000     -2.219500000000000
H       5.427400000000000     -1.399600000000000     -1.205600000000000
H      -2.758500000000000      2.203400000000000     -1.831700000000000
H      -3.976500000000000      3.388700000000000     -1.383400000000000
H       6.536100000000000     -2.249600000000000      1.864900000000000
H       5.459800000000000     -3.311900000000000      2.787000000000000
H       5.689000000000000     -1.631500000000000      3.297100000000000
H       4.247400000000000     -3.039500000000000     -2.615500000000000
H       5.384600000000000     -2.044000000000000     -3.538800000000000
H       3.646200000000000     -1.721900000000000     -3.641600000000000
H      -4.130800000000000      2.430300000000000      0.910900000000000
H      -2.857300000000000      1.272100000000000      0.514700000000000
H      -4.295300000000000      0.300200000000000     -1.292400000000000
H      -5.554100000000000      1.463200000000000     -0.915100000000000
H      -5.862700000000000      0.542100000000000      1.324400000000000
H      -6.091700000000000     -0.691700000000000      0.108400000000000
H      -4.758200000000000     -1.505100000000000      2.080600000000000
H      -3.600200000000000     -0.223000000000000      1.847800000000000
H      -2.371000000000000     -2.690400000000000      1.836600000000000
H      -1.654900000000000     -1.230400000000000      1.144700000000000
H      -5.302100000000000     -2.610800000000000     -0.459200000000000
H      -4.572200000000000     -3.518100000000000      0.866900000000000
H      -0.500100000000000     -3.274800000000000      0.351000000000000
H      -1.193600000000000     -2.338100000000000     -0.970500000000000
H      -3.517300000000000     -3.204400000000000     -1.989800000000000
H      -4.211200000000000     -4.659000000000000     -1.275900000000000
H      -2.341300000000000     -4.880100000000000      0.279600000000000
H      -1.692600000000000     -4.702200000000000     -1.350800000000000
