78

N      -0.653800000000000     -1.226200000000000      0.514700000000000
N       0.659700000000000      1.226100000000000      0.514700000000000
C      -2.682000000000000      0.047200000000000      0.021900000000000
C       2.686700000000000     -0.048100000000000      0.019900000000000
C      -1.421900000000000     -0.055500000000000      0.481300000000000
C       1.427300000000000      0.055200000000000      0.480900000000000
C      -3.409000000000000     -1.241900000000000     -0.517900000000000
C      -3.391600000000000      1.453600000000000      0.037400000000000
C       3.406700000000000      1.241100000000000     -0.519000000000000
C       3.389000000000000     -1.454200000000000      0.037600000000000
C       0.731700000000000     -1.190000000000000      1.001600000000000
C      -0.726200000000000      1.190500000000000      1.000400000000000
C      -1.188400000000000     -2.537600000000000      0.161400000000000
C       1.195000000000000      2.537700000000000      0.162200000000000
C      -3.580000000000000     -2.348700000000000      0.542500000000000
C      -2.661000000000000     -1.814600000000000     -1.741600000000000
C      -4.859900000000000     -0.950300000000000     -1.012200000000000
C      -3.539300000000000      2.035700000000000      1.477400000000000
C      -2.557300000000000      2.490800000000000     -0.745600000000000
C      -4.830700000000000      1.429600000000000     -0.516600000000000
C       4.858100000000000      0.960800000000000     -1.018000000000000
C       3.573000000000000      2.345300000000000      0.544900000000000
C       2.651600000000000      1.813100000000000     -1.738700000000000
C       3.536700000000000     -2.039700000000000      1.476200000000000
C       2.551000000000000     -2.487500000000000     -0.746600000000000
C       4.827400000000000     -1.432800000000000     -0.518100000000000
C      -0.110200000000000     -3.595400000000000      0.299100000000000
C       0.117300000000000      3.595900000000000      0.300200000000000
H       1.258200000000000     -2.097400000000000      0.903900000000000
H       0.657900000000000     -1.064300000000000      2.093600000000000
H      -1.253500000000000      2.096500000000000      0.895100000000000
H      -0.654900000000000      1.069300000000000      2.093000000000000
H      -1.333500000000000     -2.859700000000000     -0.839700000000000
H      -1.703700000000000     -2.938300000000000      1.022800000000000
H       1.338700000000000      2.868200000000000     -0.836600000000000
H       1.703400000000000      2.939900000000000      1.027700000000000
H      -3.391300000000000     -3.375300000000000      0.203300000000000
H      -3.209200000000000     -2.076500000000000      1.539900000000000
H      -4.650300000000000     -2.435500000000000      0.795200000000000
H      -2.825300000000000     -2.886400000000000     -1.921600000000000
H      -3.137500000000000     -1.388800000000000     -2.641800000000000
H      -1.644800000000000     -1.442100000000000     -1.931500000000000
H      -5.237700000000000     -1.928200000000000     -1.370600000000000
H      -5.599100000000000     -0.770300000000000     -0.231900000000000
H      -4.943500000000000     -0.409400000000000     -1.953900000000000
H      -4.269200000000000      1.428800000000000      2.031300000000000
H      -3.946700000000000      3.054800000000000      1.452300000000000
H      -2.671400000000000      2.063300000000000      2.132300000000000
H      -2.450600000000000      3.437400000000000     -0.209300000000000
H      -3.111900000000000      2.784400000000000     -1.649700000000000
H      -1.634600000000000      2.094700000000000     -1.177500000000000
H      -5.181500000000000      2.477300000000000     -0.443200000000000
H      -4.912200000000000      1.327700000000000     -1.598200000000000
H      -5.582500000000000      0.975100000000000      0.127600000000000
H       5.231100000000000      1.940500000000000     -1.375500000000000
H       5.598700000000000      0.776600000000000     -0.240100000000000
H       4.941500000000000      0.416300000000000     -1.957800000000000
H       3.202100000000000      2.071200000000000      1.541900000000000
H       3.391200000000000      3.373500000000000      0.206800000000000
H       4.642900000000000      2.428700000000000      0.801200000000000
H       2.821900000000000      2.883100000000000     -1.924900000000000
H       3.121800000000000      1.381400000000000     -2.639500000000000
H       1.633400000000000      1.443800000000000     -1.924800000000000
H       4.286400000000000     -1.449700000000000      2.022400000000000
H       2.676200000000000     -2.042300000000000      2.141500000000000
H       3.920300000000000     -3.067800000000000      1.449300000000000
H       2.448900000000000     -3.437500000000000     -0.215400000000000
H       3.102200000000000     -2.775600000000000     -1.654600000000000
H       1.626600000000000     -2.090700000000000     -1.173900000000000
H       5.179500000000000     -2.479900000000000     -0.445400000000000
H       4.906100000000000     -1.324800000000000     -1.599200000000000
H       5.578000000000000     -0.972400000000000      0.123200000000000
H       0.530500000000000     -3.669700000000000     -0.572300000000000
H       0.403700000000000     -3.670200000000000      1.263500000000000
H      -0.622500000000000     -4.574400000000000      0.257600000000000
H      -0.395600000000000      3.669100000000000      1.265400000000000
H       0.627400000000000      4.575900000000000      0.256400000000000
H      -0.527500000000000      3.665900000000000     -0.568700000000000
