79

O       3.732300000000000     -0.682000000000000      0.294700000000000
O       4.740200000000000      0.772900000000000     -1.184500000000000
C      -1.857400000000000      0.343600000000000     -0.270800000000000
C      -0.455000000000000     -0.007600000000000      0.222400000000000
C      -2.406400000000000      1.562200000000000      0.481900000000000
C      -2.800100000000000     -0.857600000000000     -0.123800000000000
C      -4.771500000000000      0.702500000000000      0.189900000000000
C      -3.828900000000000      1.903600000000000      0.042200000000000
C      -4.222800000000000     -0.516100000000000     -0.563100000000000
C       0.109900000000000     -1.203300000000000     -0.557200000000000
C       0.477300000000000      1.207000000000000      0.114800000000000
C       1.532400000000000     -1.538500000000000     -0.118800000000000
C       1.898900000000000      0.865200000000000      0.550900000000000
C       2.455300000000000     -0.327100000000000     -0.224400000000000
C      -6.174300000000000      1.053900000000000     -0.302000000000000
C      -7.221000000000000      0.120900000000000      0.300000000000000
C      -8.628399999999999      0.496000000000000     -0.169900000000000
C      -9.676500000000001     -0.461400000000000      0.401600000000000
C       4.797700000000000     -0.050700000000000     -0.281800000000000
C     -11.097099999999999     -0.175800000000000     -0.093800000000000
C       6.072600000000000     -0.560000000000000      0.353700000000000
C       7.333700000000000      0.067700000000000     -0.239900000000000
C     -12.132800000000000     -1.177100000000000      0.419100000000000
C       8.616099999999999     -0.511500000000000      0.365500000000000
C     -13.526700000000000     -0.842800000000000     -0.090200000000000
C       9.859200000000000      0.155400000000000     -0.227000000000000
C      11.139900000000001     -0.398300000000000      0.400100000000000
C      12.380100000000001      0.291300000000000     -0.167500000000000
C      13.653300000000000     -0.232500000000000      0.477700000000000
H      -1.804300000000000      0.603200000000000     -1.337900000000000
H      -0.512200000000000     -0.293400000000000      1.282600000000000
H      -2.392500000000000      1.379300000000000      1.563700000000000
H      -1.803900000000000      2.455600000000000      0.292600000000000
H      -2.475500000000000     -1.699200000000000     -0.742900000000000
H      -2.813700000000000     -1.204300000000000      0.917300000000000
H      -4.818800000000000      0.456200000000000      1.259700000000000
H      -4.196800000000000      2.745000000000000      0.641700000000000
H      -3.815000000000000      2.239900000000000     -1.002700000000000
H      -4.227700000000000     -0.322700000000000     -1.643600000000000
H      -4.858200000000000     -1.392400000000000     -0.395400000000000
H      -0.487900000000000     -2.105300000000000     -0.396200000000000
H       0.100400000000000     -0.992700000000000     -1.634000000000000
H       0.492200000000000      1.584800000000000     -0.915200000000000
H       0.145600000000000      2.025800000000000      0.760200000000000
H       1.527200000000000     -1.911000000000000      0.914000000000000
H       1.929600000000000     -2.360000000000000     -0.727400000000000
H       2.548500000000000      1.738200000000000      0.415500000000000
H       1.917800000000000      0.646900000000000      1.626800000000000
H       2.528800000000000     -0.067000000000000     -1.289200000000000
H      -6.220400000000000      1.026800000000000     -1.397600000000000
H      -6.421600000000000      2.080800000000000     -0.003300000000000
H      -7.014800000000000     -0.916400000000000      0.014300000000000
H      -7.179200000000000      0.169600000000000      1.395000000000000
H      -8.668799999999999      0.468100000000000     -1.265600000000000
H      -8.863300000000001      1.522200000000000      0.137200000000000
H      -9.659599999999999     -0.407800000000000      1.497200000000000
H      -9.408400000000000     -1.490400000000000      0.131300000000000
H     -11.102200000000000     -0.185500000000000     -1.191000000000000
H     -11.385199999999999      0.837000000000000      0.214400000000000
H       6.027600000000000     -0.343900000000000      1.427200000000000
H       6.106700000000000     -1.646400000000000      0.212800000000000
H       7.342600000000000     -0.086900000000000     -1.326300000000000
H       7.307000000000000      1.153000000000000     -0.080400000000000
H     -11.862500000000001     -2.189100000000000      0.096400000000000
H     -12.138400000000001     -1.175800000000000      1.515200000000000
H       8.603300000000001     -0.366800000000000      1.452600000000000
H       8.653800000000000     -1.592100000000000      0.182600000000000
H     -13.838100000000001      0.152300000000000      0.243200000000000
H     -13.560700000000001     -0.865600000000000     -1.184000000000000
H     -14.252300000000000     -1.570100000000000      0.287400000000000
H       9.881300000000000     -0.004100000000000     -1.311900000000000
H       9.808299999999999      1.238300000000000     -0.060200000000000
H      11.202400000000001     -1.478100000000000      0.218100000000000
H      11.106900000000000     -0.255400000000000      1.487200000000000
H      12.432000000000000      0.131100000000000     -1.250700000000000
H      12.313800000000001      1.373000000000000     -0.002100000000000
H      13.766600000000000     -1.307500000000000      0.305400000000000
H      13.647100000000000     -0.056100000000000      1.558100000000000
H      14.527600000000000      0.273200000000000      0.056100000000000
