79

O       1.558500000000000      1.127300000000000      0.744800000000000
O       2.783300000000000      1.193700000000000      2.702500000000000
C      -3.411900000000000      2.058700000000000     -0.557900000000000
C      -5.749800000000000      0.233100000000000     -0.743900000000000
C      -4.534000000000000      2.293800000000000     -1.577000000000000
C      -3.939800000000000      1.304300000000000      0.669000000000000
C      -5.221900000000000      0.987800000000000     -1.970500000000000
C      -4.628000000000000     -0.001700000000000      0.275700000000000
C      -2.773400000000000      3.383000000000000     -0.143500000000000
C      -6.387100000000000     -1.091400000000000     -1.159100000000000
C      -1.624400000000000      3.123800000000000      0.850200000000000
C       6.328100000000000     -1.064600000000000      0.380000000000000
C      -2.306600000000000      4.144700000000000     -1.386300000000000
C      -7.021000000000000     -1.798700000000000      0.035200000000000
C       3.566600000000000     -0.085900000000000      0.820400000000000
C       5.292500000000000     -1.903800000000000      1.140400000000000
C       5.641600000000000     -0.124900000000000     -0.620500000000000
C       4.242800000000000     -1.025900000000000      1.818700000000000
C       4.593000000000000      0.753100000000000      0.059300000000000
C      -0.521700000000000      2.224600000000000      0.289700000000000
C       7.335700000000000     -1.966000000000000     -0.331000000000000
C      -7.685800000000000     -3.108800000000000     -0.390500000000000
C       0.575000000000000      1.978200000000000      1.317500000000000
C       2.616800000000000      0.811800000000000      1.552000000000000
C       8.440300000000001     -1.146900000000000     -0.992000000000000
C      -8.293600000000000     -3.838800000000000      0.807000000000000
C       9.463600000000000     -2.054000000000000     -1.674800000000000
C      -8.926100000000000     -5.157800000000000      0.392800000000000
C      10.587100000000000     -1.248800000000000     -2.308000000000000
H      -2.676800000000000      1.422500000000000     -1.065400000000000
H      -6.520200000000000      0.857600000000000     -0.270700000000000
H      -5.279100000000000      2.986500000000000     -1.165500000000000
H      -4.149800000000000      2.741700000000000     -2.499300000000000
H      -4.645800000000000      1.934200000000000      1.224900000000000
H      -3.132100000000000      1.037500000000000      1.356900000000000
H      -6.048100000000000      1.208600000000000     -2.657100000000000
H      -4.512200000000000      0.356700000000000     -2.520900000000000
H      -3.883900000000000     -0.696300000000000     -0.134600000000000
H      -5.013900000000000     -0.448600000000000      1.196900000000000
H      -3.514900000000000      4.009400000000000      0.370300000000000
H      -5.637200000000000     -1.744500000000000     -1.623200000000000
H      -7.157300000000000     -0.903800000000000     -1.917700000000000
H      -2.001900000000000      2.725900000000000      1.798000000000000
H      -1.177600000000000      4.092500000000000      1.113300000000000
H       6.867400000000000     -0.450500000000000      1.114700000000000
H      -3.149200000000000      4.590900000000000     -1.924500000000000
H      -1.650900000000000      4.975400000000000     -1.102000000000000
H      -1.751900000000000      3.505600000000000     -2.081200000000000
H      -6.268500000000000     -2.043800000000000      0.790700000000000
H      -7.763100000000000     -1.144700000000000      0.508300000000000
H       2.992800000000000     -0.700900000000000      0.114200000000000
H       4.792500000000000     -2.595300000000000      0.450200000000000
H       5.792400000000000     -2.518700000000000      1.898400000000000
H       6.361600000000000      0.548200000000000     -1.095300000000000
H       5.165600000000000     -0.706900000000000     -1.419800000000000
H       4.729500000000000     -0.453600000000000      2.619500000000000
H       3.492800000000000     -1.661700000000000      2.305200000000000
H       5.090800000000000      1.452000000000000      0.744500000000000
H       4.088600000000000      1.369700000000000     -0.694800000000000
H      -0.907900000000000      1.245400000000000     -0.009800000000000
H      -0.075300000000000      2.665100000000000     -0.609200000000000
H       6.828700000000000     -2.582500000000000     -1.084000000000000
H       7.783300000000000     -2.656200000000000      0.395100000000000
H      -8.468100000000000     -2.902000000000000     -1.131000000000000
H      -6.944600000000000     -3.755800000000000     -0.875800000000000
H       1.038400000000000      2.928900000000000      1.606500000000000
H       0.153500000000000      1.498500000000000      2.208900000000000
H       8.033600000000000     -0.478600000000000     -1.757000000000000
H       8.941500000000000     -0.523200000000000     -0.242000000000000
H      -9.053500000000000     -3.207000000000000      1.281300000000000
H      -7.519000000000000     -4.034000000000000      1.557800000000000
H       8.971700000000000     -2.656400000000000     -2.447500000000000
H       9.891299999999999     -2.750100000000000     -0.943800000000000
H      -9.727000000000000     -4.996900000000000     -0.335900000000000
H      -9.355700000000001     -5.662200000000000      1.264100000000000
H      -8.183299999999999     -5.825900000000000     -0.054500000000000
H      11.120600000000000     -0.659900000000000     -1.555100000000000
H      10.198900000000000     -0.564000000000000     -3.068800000000000
H      11.307800000000000     -1.917400000000000     -2.789200000000000
