79

N       4.076400000000000      1.234400000000000     -0.239200000000000
N      -4.120900000000000      1.271200000000000      0.202500000000000
C       6.102100000000000     -0.167200000000000      0.461500000000000
C      -6.091000000000000     -0.212100000000000     -0.482100000000000
C       5.453500000000000     -1.564900000000000      0.728700000000000
C      -5.396700000000000     -1.597400000000000     -0.693800000000000
C       5.543600000000000     -1.940200000000000     -0.773000000000000
C      -5.499100000000000     -1.926400000000000      0.818000000000000
C       5.235600000000000      0.467700000000000     -0.680100000000000
C      -5.261800000000000      0.485400000000000      0.650700000000000
C       7.443600000000000     -0.559900000000000     -0.235200000000000
C      -7.430800000000000     -0.622600000000000      0.207500000000000
C       4.795600000000000     -0.782500000000000     -1.481300000000000
C      -4.797200000000000     -0.724200000000000      1.498800000000000
C       7.042500000000000     -1.766900000000000     -1.099900000000000
C      -7.007400000000000     -1.788200000000000      1.117100000000000
C       6.336400000000000      0.722500000000000      1.669900000000000
C      -6.332800000000000      0.630500000000000     -1.722300000000000
C       4.013300000000000     -1.527900000000000      1.284000000000000
C       6.233000000000000     -2.510000000000000      1.662800000000000
C      -3.954500000000000     -1.560100000000000     -1.234100000000000
C      -6.157600000000000     -2.583300000000000     -1.606200000000000
C       3.554000000000000      2.055400000000000     -1.322400000000000
C      -3.640900000000000      2.145100000000000      1.266500000000000
C       2.339900000000000      2.881600000000000     -0.893100000000000
C      -2.394100000000000      2.941300000000000      0.873400000000000
C       1.160600000000000      2.030700000000000     -0.412100000000000
C      -1.217900000000000      2.059800000000000      0.443200000000000
C      -0.027300000000000      2.908100000000000     -0.009900000000000
H       5.154800000000000     -2.926400000000000     -1.037300000000000
H      -5.085900000000000     -2.891600000000000      1.120100000000000
H       5.877400000000000      1.112100000000000     -1.295600000000000
H      -5.931800000000000      1.129700000000000      1.235500000000000
H       8.216699999999999     -0.842700000000000      0.488000000000000
H       7.860000000000000      0.251600000000000     -0.842200000000000
H      -8.186800000000000     -0.948500000000000     -0.515400000000000
H      -7.878500000000000      0.195400000000000      0.782900000000000
H       5.071800000000000     -0.694200000000000     -2.538200000000000
H       3.713200000000000     -0.951700000000000     -1.451600000000000
H      -3.709800000000000     -0.861400000000000      1.488100000000000
H      -5.091100000000000     -0.610400000000000      2.548400000000000
H       7.219800000000000     -1.580800000000000     -2.164400000000000
H       7.619800000000000     -2.654500000000000     -0.820600000000000
H      -7.206400000000000     -1.572600000000000      2.172200000000000
H      -7.553800000000000     -2.701600000000000      0.860100000000000
H       6.758700000000000      1.687100000000000      1.368200000000000
H       7.040200000000000      0.260000000000000      2.370300000000000
H       5.411900000000000      0.915000000000000      2.222700000000000
H      -7.015500000000000      0.127500000000000     -2.415500000000000
H      -5.406000000000000      0.828000000000000     -2.269600000000000
H      -6.783400000000000      1.593400000000000     -1.458200000000000
H       3.997600000000000     -1.095700000000000      2.290700000000000
H       3.296400000000000     -0.968400000000000      0.683700000000000
H       3.611000000000000     -2.545700000000000      1.356600000000000
H       5.800600000000000     -3.517100000000000      1.636500000000000
H       7.291300000000000     -2.617600000000000      1.416300000000000
H       6.186900000000000     -2.154200000000000      2.698400000000000
H      -3.259100000000000     -0.956500000000000     -0.650800000000000
H      -3.531100000000000     -2.571500000000000     -1.255500000000000
H      -3.934600000000000     -1.172200000000000     -2.258700000000000
H      -5.706100000000000     -3.580700000000000     -1.549000000000000
H      -7.215200000000000     -2.706900000000000     -1.365600000000000
H      -6.109700000000000     -2.256300000000000     -2.651300000000000
H       4.337100000000000      1.848600000000000      0.530600000000000
H      -4.382900000000000      1.851100000000000     -0.593000000000000
H       3.261200000000000      1.428100000000000     -2.172800000000000
H       4.325800000000000      2.749400000000000     -1.677900000000000
H      -4.425100000000000      2.857800000000000      1.550700000000000
H      -3.396800000000000      1.557900000000000      2.160100000000000
H       2.636500000000000      3.576600000000000     -0.097100000000000
H       2.019600000000000      3.497000000000000     -1.743000000000000
H      -2.090900000000000      3.565900000000000      1.722700000000000
H      -2.652100000000000      3.626100000000000      0.055300000000000
H       0.858000000000000      1.342700000000000     -1.210900000000000
H       1.460500000000000      1.418500000000000      0.446400000000000
H      -1.516500000000000      1.401500000000000     -0.380800000000000
H      -0.920200000000000      1.416400000000000      1.279900000000000
H      -0.326200000000000      3.534800000000000     -0.859000000000000
H       0.273600000000000      3.582800000000000      0.800700000000000
