79

O       2.478200000000000      1.796300000000000     -0.489000000000000
O       2.418400000000000      0.104800000000000     -1.952200000000000
C       4.290900000000000      0.119900000000000     -0.420000000000000
C       4.631100000000000      0.666800000000000      0.977000000000000
C       4.273400000000000      2.137700000000000      1.112600000000000
C       4.247100000000000     -1.435100000000000     -0.410900000000000
C       2.786200000000000      2.279800000000000      0.835500000000000
C       2.971400000000000      0.644500000000000     -0.994700000000000
C       3.229600000000000     -2.038800000000000      0.570400000000000
C       2.333400000000000      3.744900000000000      0.919900000000000
C       5.382700000000000      0.559300000000000     -1.421300000000000
C       2.670100000000000     -3.369100000000000      0.059800000000000
C       0.811900000000000      3.937500000000000      1.048400000000000
C       1.786600000000000     -4.038100000000000      1.115600000000000
C      -0.010600000000000      3.272900000000000     -0.056000000000000
C       0.933800000000000     -5.180400000000000      0.554100000000000
C      -1.486100000000000      3.678700000000000     -0.002300000000000
C      -0.215300000000000     -4.745600000000000     -0.367000000000000
C      -2.297900000000000      2.871100000000000     -1.018300000000000
C      -1.255200000000000     -3.873200000000000      0.340500000000000
C      -3.748100000000000      3.333800000000000     -1.167300000000000
C      -2.433700000000000     -3.528400000000000     -0.574400000000000
C      -4.594400000000000      3.318200000000000      0.107500000000000
C      -3.474600000000000     -2.696100000000000      0.179200000000000
C      -4.667700000000000      1.984700000000000      0.856000000000000
C      -4.645000000000000     -2.289900000000000     -0.718900000000000
C      -5.141100000000000      0.810600000000000     -0.005600000000000
C      -5.465600000000000     -0.406300000000000      0.865100000000000
C      -5.809700000000000     -1.660500000000000      0.056300000000000
H       5.696000000000000      0.523300000000000      1.197700000000000
H       4.086200000000000      0.120700000000000      1.755600000000000
H       4.512300000000000      2.486300000000000      2.123600000000000
H       4.860500000000000      2.738200000000000      0.409000000000000
H       5.241300000000000     -1.830400000000000     -0.162800000000000
H       4.029400000000000     -1.794000000000000     -1.426000000000000
H       2.209000000000000      1.681300000000000      1.551600000000000
H       2.389800000000000     -1.352900000000000      0.732200000000000
H       3.713000000000000     -2.189100000000000      1.543200000000000
H       2.798300000000000      4.224600000000000      1.790000000000000
H       2.676100000000000      4.285200000000000      0.028300000000000
H       5.202100000000000      0.137000000000000     -2.417100000000000
H       5.409500000000000      1.647900000000000     -1.540900000000000
H       6.375900000000000      0.229100000000000     -1.097200000000000
H       3.489800000000000     -4.046500000000000     -0.208200000000000
H       2.100800000000000     -3.174800000000000     -0.855200000000000
H       0.606800000000000      5.015200000000000      1.057200000000000
H       0.484300000000000      3.549600000000000      2.021100000000000
H       2.438100000000000     -4.445400000000000      1.899400000000000
H       1.150100000000000     -3.297400000000000      1.610300000000000
H       0.054300000000000      2.183700000000000      0.046400000000000
H       0.400500000000000      3.540100000000000     -1.036900000000000
H       0.511200000000000     -5.743100000000000      1.395900000000000
H       1.580200000000000     -5.878700000000000      0.008400000000000
H      -1.579400000000000      4.750300000000000     -0.214400000000000
H      -1.875500000000000      3.509000000000000      1.007600000000000
H      -0.708200000000000     -5.650900000000000     -0.743400000000000
H       0.175800000000000     -4.220400000000000     -1.244900000000000
H      -2.269900000000000      1.809600000000000     -0.746500000000000
H      -1.819000000000000      2.947300000000000     -2.002900000000000
H      -0.794600000000000     -2.938900000000000      0.679600000000000
H      -1.623400000000000     -4.396400000000000      1.231400000000000
H      -3.751900000000000      4.355900000000000     -1.567100000000000
H      -4.233700000000000      2.713000000000000     -1.930100000000000
H      -2.897600000000000     -4.450100000000000     -0.945400000000000
H      -2.072400000000000     -2.970300000000000     -1.446400000000000
H      -5.614000000000000      3.624700000000000     -0.159500000000000
H      -4.224000000000000      4.085000000000000      0.798700000000000
H      -3.849200000000000     -3.273600000000000      1.033200000000000
H      -2.989300000000000     -1.799000000000000      0.580500000000000
H      -5.353700000000000      2.114500000000000      1.702700000000000
H      -3.689000000000000      1.745400000000000      1.288500000000000
H      -4.363200000000000      0.557500000000000     -0.732200000000000
H      -6.035400000000000      1.097500000000000     -0.571400000000000
H      -5.027000000000000     -3.178000000000000     -1.237900000000000
H      -4.292900000000000     -1.604400000000000     -1.497900000000000
H      -6.330600000000000     -0.160100000000000      1.494400000000000
H      -4.639700000000000     -0.612000000000000      1.554500000000000
H      -6.211300000000000     -2.413000000000000      0.746800000000000
H      -6.617600000000000     -1.427100000000000     -0.647900000000000
