79

N      -2.494900000000000      0.299700000000000     -0.019500000000000
N       2.994700000000000     -0.655700000000000      0.631800000000000
C      -3.472400000000000     -0.600700000000000      0.559500000000000
C      -2.953900000000000      1.444000000000000     -0.781700000000000
C      -3.285500000000000     -2.015100000000000     -0.008000000000000
C      -2.435400000000000      2.741700000000000     -0.145500000000000
C      -4.315400000000000     -3.010000000000000      0.545000000000000
C      -2.916500000000000      3.993900000000000     -0.891900000000000
C      -1.115500000000000      0.057900000000000      0.145100000000000
C      -3.309000000000000     -0.596300000000000      2.076500000000000
C      -2.462600000000000      1.307900000000000     -2.219700000000000
C      -4.161900000000000     -4.431400000000000     -0.028900000000000
C      -2.427400000000000      5.309700000000000     -0.257100000000000
C      -0.430000000000000     -0.729700000000000     -0.780000000000000
C      -0.436000000000000      0.607200000000000      1.232500000000000
C      -2.823200000000000     -5.070200000000000      0.344000000000000
C      -4.310000000000000     -4.394600000000000     -1.551900000000000
C      -2.920000000000000      5.402300000000000      1.189200000000000
C      -0.904500000000000      5.444600000000000     -0.293000000000000
C       3.780900000000000     -1.461300000000000     -0.279300000000000
C       5.271700000000000     -1.129200000000000     -0.122400000000000
C       1.640500000000000     -0.422600000000000      0.472800000000000
C       5.574000000000000      0.352000000000000     -0.389400000000000
C       0.934900000000000     -0.967600000000000     -0.617700000000000
C       0.928800000000000      0.369200000000000      1.394600000000000
C       7.061300000000000      0.713600000000000     -0.214600000000000
C       3.517300000000000     -2.935400000000000      0.012800000000000
C       7.509800000000000      0.388800000000000      1.212500000000000
C       7.960400000000000     -0.013000000000000     -1.215900000000000
H      -4.490700000000000     -0.264200000000000      0.329300000000000
H      -4.050000000000000      1.479800000000000     -0.801400000000000
H      -2.286300000000000     -2.391100000000000      0.231100000000000
H      -3.360800000000000     -1.955600000000000     -1.099200000000000
H      -2.771600000000000      2.766400000000000      0.896800000000000
H      -1.341400000000000      2.749000000000000     -0.136200000000000
H      -4.231400000000000     -3.080400000000000      1.635100000000000
H      -5.326200000000000     -2.641600000000000      0.329300000000000
H      -2.569100000000000      3.976400000000000     -1.930800000000000
H      -4.013200000000000      3.996100000000000     -0.925500000000000
H      -3.263100000000000      0.427500000000000      2.465600000000000
H      -2.409700000000000     -1.127900000000000      2.405600000000000
H      -4.166400000000000     -1.072200000000000      2.563900000000000
H      -2.677100000000000      0.309400000000000     -2.617800000000000
H      -1.387400000000000      1.492200000000000     -2.317900000000000
H      -2.976300000000000      2.017100000000000     -2.877200000000000
H      -4.967900000000000     -5.049200000000000      0.386200000000000
H      -2.862200000000000      6.139300000000000     -0.828500000000000
H      -0.940300000000000     -1.165800000000000     -1.634500000000000
H      -0.951200000000000      1.224500000000000      1.963500000000000
H      -2.667400000000000     -5.042500000000000      1.427400000000000
H      -1.975600000000000     -4.572900000000000     -0.137600000000000
H      -2.804800000000000     -6.120200000000000      0.032200000000000
H      -3.449900000000000     -3.933300000000000     -2.047300000000000
H      -5.215100000000000     -3.854600000000000     -1.848900000000000
H      -4.393400000000000     -5.414900000000000     -1.943300000000000
H      -2.401500000000000      4.706100000000000      1.855600000000000
H      -3.996400000000000      5.211800000000000      1.254000000000000
H      -2.741200000000000      6.410400000000000      1.580300000000000
H      -0.526100000000000      5.311200000000000     -1.311800000000000
H      -0.406200000000000      4.718000000000000      0.356200000000000
H      -0.604600000000000      6.442700000000000      0.044900000000000
H       3.523900000000000     -1.239900000000000     -1.322300000000000
H       5.579700000000000     -1.399000000000000      0.894000000000000
H       5.844200000000000     -1.759900000000000     -0.811700000000000
H       4.986300000000000      0.986600000000000      0.284700000000000
H       5.260300000000000      0.607300000000000     -1.409400000000000
H       1.414500000000000     -1.580000000000000     -1.374600000000000
H       1.443100000000000      0.806700000000000      2.247600000000000
H       3.428000000000000     -0.331800000000000      1.489900000000000
H       7.165000000000000      1.793700000000000     -0.377000000000000
H       4.112700000000000     -3.570400000000000     -0.652300000000000
H       3.788700000000000     -3.187100000000000      1.044800000000000
H       2.468800000000000     -3.215700000000000     -0.121100000000000
H       6.822600000000000      0.815400000000000      1.950700000000000
H       8.500200000000000      0.819600000000000      1.399100000000000
H       7.592400000000000     -0.687400000000000      1.393100000000000
H       7.616800000000000      0.158000000000000     -2.241400000000000
H       7.991200000000000     -1.092600000000000     -1.039900000000000
H       8.988099999999999      0.359500000000000     -1.142900000000000
