79

O      -4.913100000000000     -3.448200000000000      1.390600000000000
O      -8.187099999999999      1.342500000000000      0.333500000000000
C       0.764200000000000     -0.095700000000000     -0.369500000000000
C      -0.155600000000000      0.910100000000000      0.353300000000000
C      -1.578800000000000      0.938100000000000     -0.216000000000000
C      -2.207700000000000     -0.483900000000000     -0.083700000000000
C       2.082300000000000      0.178900000000000      0.394600000000000
C      -3.690500000000000     -0.531900000000000     -0.624400000000000
C       0.177700000000000     -1.496700000000000     -0.155400000000000
C      -1.274600000000000     -1.587200000000000     -0.657300000000000
C       0.662200000000000      2.198500000000000      0.366700000000000
C       2.117500000000000      1.719700000000000      0.521000000000000
C      -2.439500000000000      1.977800000000000      0.508000000000000
C      -4.522500000000000      0.578100000000000      0.118900000000000
C      -3.876800000000000      1.969500000000000      0.008400000000000
C       0.931000000000000      0.175600000000000     -1.885600000000000
C       3.354500000000000     -0.394400000000000     -0.213000000000000
C      -4.305600000000000     -1.918500000000000     -0.312400000000000
C      -3.743900000000000     -0.343400000000000     -2.157400000000000
C      -5.992300000000000      0.689600000000000     -0.311900000000000
C       4.585600000000000      0.381000000000000      0.304700000000000
C       3.447500000000000     -1.894400000000000      0.087400000000000
C      -4.362600000000000     -2.155700000000000      1.177600000000000
C      -6.842700000000000      1.286400000000000      0.790100000000000
C       5.921500000000000     -0.172300000000000     -0.201800000000000
C       7.143300000000000      0.556900000000000      0.372700000000000
C       8.516900000000000      0.094200000000000     -0.149100000000000
C       8.719799999999999     -1.388300000000000      0.178100000000000
C       9.669400000000000      0.913700000000000      0.431800000000000
H      -0.246300000000000      0.599900000000000      1.408200000000000
H      -1.537600000000000      1.226700000000000     -1.271300000000000
H      -2.237200000000000     -0.659500000000000      0.999100000000000
H       1.982500000000000     -0.212400000000000      1.419000000000000
H       0.735200000000000     -2.257200000000000     -0.705100000000000
H       0.208200000000000     -1.771400000000000      0.906200000000000
H      -1.648400000000000     -2.578400000000000     -0.380300000000000
H      -1.273300000000000     -1.551800000000000     -1.751000000000000
H       0.538800000000000      2.760900000000000     -0.565800000000000
H       0.373200000000000      2.857600000000000      1.191900000000000
H       2.695600000000000      2.203400000000000     -0.273100000000000
H       2.532300000000000      2.029700000000000      1.486200000000000
H      -2.022800000000000      2.981200000000000      0.361100000000000
H      -2.430200000000000      1.787900000000000      1.588900000000000
H      -4.496700000000000      0.365400000000000      1.193300000000000
H      -4.436700000000000      2.706900000000000      0.593800000000000
H      -3.902500000000000      2.321300000000000     -1.030000000000000
H       1.449300000000000      1.117700000000000     -2.089900000000000
H       1.501300000000000     -0.626500000000000     -2.367600000000000
H      -0.025700000000000      0.222900000000000     -2.412400000000000
H       3.362000000000000     -0.272900000000000     -1.300800000000000
H      -3.743300000000000     -2.725500000000000     -0.797100000000000
H      -5.310800000000000     -2.023700000000000     -0.737000000000000
H      -3.305100000000000      0.605000000000000     -2.477800000000000
H      -3.215700000000000     -1.145800000000000     -2.682100000000000
H      -4.775800000000000     -0.362900000000000     -2.524700000000000
H      -6.093300000000000      1.287300000000000     -1.226700000000000
H      -6.422000000000000     -0.285100000000000     -0.559400000000000
H       4.557500000000000      1.430500000000000     -0.001300000000000
H       4.591200000000000      0.364100000000000      1.402400000000000
H       3.494500000000000     -2.082500000000000      1.165200000000000
H       4.335100000000000     -2.340800000000000     -0.369800000000000
H       2.620100000000000     -2.464200000000000     -0.323600000000000
H      -3.384400000000000     -2.159500000000000      1.659400000000000
H      -5.027700000000000     -1.468200000000000      1.701200000000000
H      -6.812800000000000      0.666800000000000      1.692200000000000
H      -6.534800000000000      2.302900000000000      1.047200000000000
H       6.007800000000000     -1.223400000000000      0.082000000000000
H       5.946900000000000     -0.123700000000000     -1.296800000000000
H       7.038000000000000      1.627400000000000      0.152700000000000
H       7.124200000000000      0.469100000000000      1.467100000000000
H      -4.946600000000000     -3.592300000000000      2.351800000000000
H      -8.718500000000001      1.719300000000000      1.055400000000000
H       8.534700000000001      0.212000000000000     -1.239700000000000
H       8.018500000000000     -2.022000000000000     -0.372800000000000
H       9.727499999999999     -1.711200000000000     -0.106200000000000
H       8.595300000000000     -1.583000000000000      1.248700000000000
H       9.713500000000000      0.818500000000000      1.522000000000000
H       9.548400000000001      1.974600000000000      0.189600000000000
H      10.629799999999999      0.583700000000000      0.021900000000000
