79

O       3.835600000000000     -2.648400000000000      1.342200000000000
O      -2.675100000000000      2.534700000000000      0.602100000000000
C       1.207500000000000     -0.100800000000000     -0.450300000000000
C      -1.146400000000000     -0.801400000000000     -0.421400000000000
C       2.419900000000000     -0.271900000000000      0.469600000000000
C      -2.504800000000000     -0.112600000000000     -0.600200000000000
C      -0.115200000000000      0.069600000000000      0.313100000000000
C       3.616200000000000     -0.900200000000000     -0.279200000000000
C      -3.144600000000000      0.195500000000000      0.774000000000000
C       3.004200000000000      1.052400000000000      0.999900000000000
C      -3.498100000000000     -1.039800000000000     -1.318700000000000
C       0.982600000000000     -1.299900000000000     -1.369800000000000
C      -0.483500000000000     -1.166900000000000     -1.748200000000000
C       4.248200000000000      0.310500000000000     -0.994000000000000
C      -4.138800000000000     -0.961100000000000      1.052400000000000
C       4.022600000000000      1.508900000000000     -0.057500000000000
C      -4.123400000000000     -1.861100000000000     -0.193000000000000
C       1.994900000000000      2.134400000000000      1.357200000000000
C      -4.549300000000000     -0.278700000000000     -2.124500000000000
C       4.561600000000000     -1.627900000000000      0.681300000000000
C      -3.723800000000000      1.609700000000000      0.824800000000000
C       5.702100000000000      0.154600000000000     -1.417000000000000
C      -5.557000000000000     -0.560600000000000      1.448700000000000
C       2.684100000000000      3.385300000000000      1.865200000000000
C      -3.915900000000000      0.547400000000000     -3.230200000000000
C       6.212200000000000      1.396700000000000     -2.124600000000000
C      -6.427900000000000     -1.776700000000000      1.707300000000000
C       4.654000000000000     -3.370500000000000      2.255300000000000
C      -3.141900000000000      3.878700000000000      0.635400000000000
H       1.344400000000000      0.776800000000000     -1.097200000000000
H      -1.271200000000000     -1.725900000000000      0.160000000000000
H       2.119600000000000     -0.900400000000000      1.316700000000000
H      -2.321700000000000      0.805200000000000     -1.165100000000000
H      -0.039000000000000     -0.246700000000000      1.359400000000000
H      -0.411200000000000      1.122600000000000      0.310300000000000
H       3.325200000000000     -1.652500000000000     -1.015800000000000
H      -2.378600000000000      0.163400000000000      1.559100000000000
H       3.567000000000000      0.816600000000000      1.914700000000000
H      -3.005200000000000     -1.723800000000000     -2.016700000000000
H       1.140000000000000     -2.249400000000000     -0.843400000000000
H       1.610400000000000     -1.277300000000000     -2.266000000000000
H      -0.613200000000000     -0.371800000000000     -2.492400000000000
H      -0.861100000000000     -2.102000000000000     -2.171800000000000
H       3.657600000000000      0.493100000000000     -1.903600000000000
H      -3.730100000000000     -1.551900000000000      1.885000000000000
H       4.944900000000000      1.823900000000000      0.444200000000000
H       3.659100000000000      2.359500000000000     -0.645800000000000
H      -3.480000000000000     -2.726800000000000      0.013100000000000
H      -5.091100000000000     -2.266800000000000     -0.493800000000000
H       1.311400000000000      1.765500000000000      2.129900000000000
H       1.397500000000000      2.427500000000000      0.488700000000000
H      -5.168400000000000      0.366400000000000     -1.496400000000000
H      -5.233000000000000     -1.003900000000000     -2.583800000000000
H       5.382700000000000     -2.088700000000000      0.119900000000000
H       4.992700000000000     -0.942400000000000      1.419500000000000
H      -4.500800000000000      1.755600000000000      0.069200000000000
H      -4.155700000000000      1.802700000000000      1.813200000000000
H       6.347500000000000     -0.034200000000000     -0.551900000000000
H       5.797800000000000     -0.707500000000000     -2.087400000000000
H      -5.521600000000000      0.035300000000000      2.368100000000000
H      -6.032900000000000      0.055600000000000      0.679100000000000
H       3.329900000000000      3.161800000000000      2.720700000000000
H       1.936600000000000      4.114800000000000      2.194500000000000
H       3.290400000000000      3.867800000000000      1.093100000000000
H      -3.411000000000000      1.437700000000000     -2.846000000000000
H      -4.692700000000000      0.898400000000000     -3.918100000000000
H      -3.198800000000000     -0.040700000000000     -3.811600000000000
H       6.245100000000000      2.265600000000000     -1.460900000000000
H       7.230400000000000      1.225900000000000     -2.489600000000000
H       5.585900000000000      1.645200000000000     -2.987600000000000
H      -5.931700000000000     -2.494500000000000      2.368300000000000
H      -7.356100000000000     -1.463700000000000      2.198300000000000
H      -6.721700000000000     -2.290400000000000      0.788600000000000
H       4.041200000000000     -4.141400000000000      2.730000000000000
H       5.040900000000000     -2.703800000000000      3.032000000000000
H       5.480600000000000     -3.856100000000000      1.727700000000000
H      -2.290300000000000      4.541900000000000      0.461600000000000
H      -3.572300000000000      4.110900000000000      1.614300000000000
H      -3.882200000000000      4.046200000000000     -0.152800000000000
