79

O       5.267700000000000      3.015400000000000     -0.006600000000000
O       6.017000000000000      2.454400000000000     -2.143700000000000
C      -1.631900000000000     -1.839700000000000     -0.132700000000000
C      -0.528600000000000     -0.773400000000000      0.054400000000000
C      -2.877700000000000     -0.929400000000000     -0.005800000000000
C       0.882600000000000     -1.364800000000000      0.035100000000000
C      -0.987700000000000      0.010200000000000      1.279400000000000
C      -2.523900000000000      0.014500000000000      1.167700000000000
C      -1.439600000000000     -2.481300000000000     -1.516800000000000
C       1.089600000000000     -2.082600000000000     -1.316900000000000
C      -4.216600000000000     -1.628900000000000      0.180000000000000
C      -0.029300000000000     -3.072200000000000     -1.673100000000000
C      -1.633600000000000     -2.942300000000000      0.955800000000000
C       1.953100000000000     -0.291400000000000      0.234200000000000
C      -5.299700000000000     -0.702100000000000      0.773900000000000
C       3.348400000000000     -0.904200000000000      0.265800000000000
C      -4.703100000000000     -2.188600000000000     -1.162400000000000
C       4.422800000000000      0.173700000000000      0.439300000000000
C       5.747300000000000     -0.396500000000000      1.004000000000000
C      -5.547900000000000      0.555900000000000     -0.064400000000000
C       4.663700000000000      0.872500000000000     -0.912300000000000
C       6.826000000000000      0.697300000000000      1.081500000000000
C       5.744300000000000      1.956800000000000     -0.835600000000000
C       7.042600000000000      1.380900000000000     -0.265600000000000
C      -6.576600000000000      1.511100000000000      0.555200000000000
C       5.570800000000000     -1.031800000000000      2.386100000000000
C      -6.923500000000000      2.763900000000000     -0.271500000000000
C      -5.659000000000000      3.597700000000000     -0.498700000000000
C      -7.997200000000000      3.624900000000000      0.394100000000000
H      -0.582600000000000     -0.069300000000000     -0.793400000000000
H      -2.928400000000000     -0.299200000000000     -0.906700000000000
H       0.988300000000000     -2.095500000000000      0.845200000000000
H      -0.588000000000000      1.029400000000000      1.286200000000000
H      -0.671600000000000     -0.476800000000000      2.208800000000000
H      -2.930600000000000     -0.329700000000000      2.124600000000000
H      -2.879000000000000      1.035100000000000      0.999900000000000
H      -1.600100000000000     -1.736500000000000     -2.306500000000000
H      -2.155600000000000     -3.288000000000000     -1.690200000000000
H       2.025700000000000     -2.649400000000000     -1.322100000000000
H       1.162800000000000     -1.338200000000000     -2.120600000000000
H      -4.138100000000000     -2.462900000000000      0.884600000000000
H       0.106000000000000     -3.412100000000000     -2.706900000000000
H       0.068500000000000     -3.965300000000000     -1.044800000000000
H      -1.876800000000000     -2.552500000000000      1.949200000000000
H      -0.668400000000000     -3.447900000000000      1.043900000000000
H      -2.364000000000000     -3.724500000000000      0.720400000000000
H       1.870300000000000      0.456200000000000     -0.562000000000000
H       1.776000000000000      0.233600000000000      1.180600000000000
H      -6.241300000000000     -1.261300000000000      0.855900000000000
H      -5.048100000000000     -0.417800000000000      1.801300000000000
H       3.366100000000000     -1.622000000000000      1.090200000000000
H       3.573300000000000     -1.471300000000000     -0.642100000000000
H      -4.186600000000000     -3.116600000000000     -1.413700000000000
H      -5.768000000000000     -2.444400000000000     -1.116900000000000
H      -4.566300000000000     -1.482400000000000     -1.987600000000000
H       4.056000000000000      0.921600000000000      1.156100000000000
H       6.110000000000000     -1.178500000000000      0.322600000000000
H      -5.913400000000000      0.265800000000000     -1.056600000000000
H      -4.618300000000000      1.101100000000000     -0.227000000000000
H       4.946100000000000      0.134300000000000     -1.675200000000000
H       3.734600000000000      1.333900000000000     -1.267000000000000
H       7.775800000000000      0.260400000000000      1.413200000000000
H       6.545400000000000      1.445900000000000      1.833300000000000
H       7.787200000000000      2.178000000000000     -0.146500000000000
H       7.475700000000000      0.666100000000000     -0.977500000000000
H      -6.215800000000000      1.821300000000000      1.544800000000000
H      -7.503500000000000      0.949800000000000      0.732000000000000
H       5.062900000000000     -0.349000000000000      3.075400000000000
H       6.543500000000000     -1.285400000000000      2.822400000000000
H       5.000500000000000     -1.963300000000000      2.339800000000000
H      -7.305500000000000      2.443700000000000     -1.249000000000000
H       6.035500000000000      3.497300000000000      0.343400000000000
H       5.185800000000000      2.457700000000000     -2.647400000000000
H      -5.165900000000000      3.844000000000000      0.447800000000000
H      -5.903500000000000      4.538800000000000     -1.003900000000000
H      -4.940600000000000      3.075200000000000     -1.137300000000000
H      -7.662500000000000      3.991400000000000      1.370400000000000
H      -8.245699999999999      4.491100000000000     -0.228100000000000
H      -8.914899999999999      3.047300000000000      0.546100000000000
