79

O       5.036900000000000      2.113800000000000     -0.358200000000000
O      -0.654000000000000     -1.766500000000000     -4.047000000000000
C       3.925800000000000     -1.219000000000000      0.970600000000000
C       4.920900000000000     -0.145600000000000      0.475000000000000
C       2.709100000000000     -1.290300000000000      0.024100000000000
C       2.156600000000000      0.055600000000000     -0.367500000000000
C       4.226200000000000      1.233600000000000      0.421400000000000
C      -0.733600000000000     -0.912500000000000     -2.895700000000000
C       0.793000000000000      0.054600000000000     -0.993300000000000
C       0.659700000000000     -0.855300000000000     -2.222400000000000
C       2.846600000000000      1.190800000000000     -0.169900000000000
C      -1.867100000000000     -1.484100000000000     -2.015100000000000
C       4.549500000000000     -2.610900000000000      1.100000000000000
C       6.185200000000000     -0.059400000000000      1.339400000000000
C      -1.644400000000000     -2.903500000000000     -1.481400000000000
C      -2.826400000000000     -3.433600000000000     -0.654900000000000
C      -3.242300000000000     -2.591100000000000      0.570900000000000
C      -1.104400000000000      0.486600000000000     -3.414200000000000
C      -2.076900000000000     -2.429400000000000      1.567200000000000
C      -4.462200000000000     -3.245700000000000      1.231600000000000
C      -2.441300000000000     -1.618900000000000      2.816400000000000
C      -2.811500000000000     -0.209600000000000      2.445100000000000
C      -2.005600000000000      0.865100000000000      2.338300000000000
C      -2.592600000000000      2.211000000000000      1.960200000000000
C      -1.959400000000000      2.785600000000000      0.688800000000000
C      -0.522000000000000      0.861900000000000      2.585800000000000
C      -2.590100000000000      4.128500000000000      0.313700000000000
C      -1.937300000000000      4.719200000000000     -0.936000000000000
C      -2.538300000000000      6.069200000000000     -1.293100000000000
H       3.565400000000000     -0.925100000000000      1.966900000000000
H       5.252700000000000     -0.410100000000000     -0.539800000000000
H       1.922800000000000     -1.877600000000000      0.515800000000000
H       2.994500000000000     -1.829000000000000     -0.888400000000000
H       4.156300000000000      1.658900000000000      1.430100000000000
H       0.509400000000000      1.077800000000000     -1.264400000000000
H       0.073800000000000     -0.271000000000000     -0.234100000000000
H       0.956800000000000     -1.880900000000000     -1.971700000000000
H       1.396600000000000     -0.541100000000000     -2.975700000000000
H       2.399100000000000      2.144000000000000     -0.441300000000000
H      -2.028500000000000     -0.797300000000000     -1.176900000000000
H      -2.799800000000000     -1.490500000000000     -2.595400000000000
H       5.306600000000000     -2.635900000000000      1.889700000000000
H       3.788200000000000     -3.354300000000000      1.360500000000000
H       5.021000000000000     -2.923500000000000      0.162300000000000
H       5.933300000000000      0.113500000000000      2.391100000000000
H       6.835100000000000      0.757800000000000      1.008900000000000
H       6.773600000000000     -0.979800000000000      1.275200000000000
H      -1.484300000000000     -3.588200000000000     -2.323100000000000
H      -0.733300000000000     -2.943900000000000     -0.876300000000000
H      -2.580200000000000     -4.451700000000000     -0.325700000000000
H      -3.690500000000000     -3.531600000000000     -1.325400000000000
H      -3.561300000000000     -1.605600000000000      0.213700000000000
H      -2.008700000000000      0.444400000000000     -4.032800000000000
H      -0.313200000000000      0.889200000000000     -4.056800000000000
H      -1.291400000000000      1.193700000000000     -2.600600000000000
H      -1.222200000000000     -1.951300000000000      1.076000000000000
H      -1.734900000000000     -3.421800000000000      1.887900000000000
H       4.632400000000000      2.997700000000000     -0.325300000000000
H      -1.520600000000000     -1.765900000000000     -4.488200000000000
H      -5.242300000000000     -3.450300000000000      0.489900000000000
H      -4.194500000000000     -4.194900000000000      1.708100000000000
H      -4.910900000000000     -2.594900000000000      1.987600000000000
H      -3.260800000000000     -2.079800000000000      3.377300000000000
H      -1.589200000000000     -1.622500000000000      3.505000000000000
H      -3.872700000000000     -0.072700000000000      2.239600000000000
H      -2.437400000000000      2.905900000000000      2.795300000000000
H      -3.678300000000000      2.138200000000000      1.818500000000000
H      -0.883600000000000      2.939100000000000      0.830400000000000
H      -2.080000000000000      2.076800000000000     -0.140100000000000
H       0.032600000000000      1.132700000000000      1.685500000000000
H      -0.145600000000000     -0.113000000000000      2.905500000000000
H      -0.271900000000000      1.580400000000000      3.373400000000000
H      -2.482200000000000      4.830100000000000      1.150000000000000
H      -3.664700000000000      3.995400000000000      0.139600000000000
H      -0.859800000000000      4.838800000000000     -0.773100000000000
H      -2.063000000000000      4.032400000000000     -1.781200000000000
H      -3.611000000000000      5.980500000000000     -1.492700000000000
H      -2.058000000000000      6.472500000000000     -2.190100000000000
H      -2.398100000000000      6.788700000000000     -0.480100000000000
