79

O       0.919000000000000     -1.646300000000000     -0.278400000000000
N       2.103000000000000      0.217700000000000      0.430700000000000
C       5.130800000000000     -1.316300000000000     -1.350600000000000
C       3.443100000000000     -0.307500000000000      0.308600000000000
C       3.736700000000000     -0.681200000000000     -1.148400000000000
C       5.034100000000000     -2.119800000000000      1.099100000000000
C       5.322400000000000     -2.491800000000000     -0.364200000000000
C       3.636300000000000     -1.505600000000000      1.240800000000000
C       5.230100000000000     -1.853700000000000     -2.791500000000000
C       6.239700000000000     -0.262700000000000     -1.163700000000000
C       2.017400000000000      1.593900000000000      0.903600000000000
C       5.173000000000000     -3.347200000000000      2.000500000000000
C       2.762000000000000      2.555900000000000     -0.036700000000000
C       0.929200000000000     -0.482200000000000      0.130500000000000
C       2.577100000000000      1.686400000000000      2.320800000000000
C       2.351900000000000      4.038600000000000      0.088700000000000
C      -0.376100000000000      0.278200000000000      0.331900000000000
C      -1.605200000000000     -0.563100000000000     -0.020100000000000
C       0.869500000000000      4.263000000000000     -0.212800000000000
C       3.204000000000000      4.890600000000000     -0.856400000000000
C      -2.930900000000000      0.155300000000000      0.246300000000000
C      -4.159300000000000     -0.676200000000000     -0.129800000000000
C      -5.454300000000000      0.079100000000000      0.177900000000000
C      -6.683500000000000     -0.736300000000000     -0.227100000000000
C      -7.977400000000000      0.032800000000000      0.049700000000000
C      -9.206600000000000     -0.798000000000000     -0.325400000000000
C     -10.530300000000000     -0.085800000000000     -0.039000000000000
C     -11.755300000000000     -0.917800000000000     -0.385200000000000
H       4.175000000000000      0.446100000000000      0.607200000000000
H       3.638100000000000      0.206300000000000     -1.786800000000000
H       2.985200000000000     -1.390400000000000     -1.515600000000000
H       5.774900000000000     -1.383700000000000      1.434400000000000
H       4.655100000000000     -3.315300000000000     -0.654600000000000
H       6.344700000000000     -2.883800000000000     -0.446900000000000
H       3.476900000000000     -1.194700000000000      2.281100000000000
H       2.889600000000000     -2.283300000000000      1.041400000000000
H       4.464400000000000     -2.612700000000000     -2.987500000000000
H       6.207500000000000     -2.313800000000000     -2.975600000000000
H       5.095400000000000     -1.049400000000000     -3.523700000000000
H       6.115000000000000      0.565700000000000     -1.870400000000000
H       6.251500000000000      0.166700000000000     -0.158400000000000
H       7.228700000000000     -0.700900000000000     -1.340700000000000
H       0.993600000000000      1.934600000000000      0.984200000000000
H       4.996400000000000     -3.081100000000000      3.048000000000000
H       6.180700000000000     -3.769700000000000      1.927500000000000
H       4.457200000000000     -4.129000000000000      1.724400000000000
H       3.846600000000000      2.484400000000000      0.111000000000000
H       2.574700000000000      2.248900000000000     -1.074900000000000
H       3.658200000000000      1.526000000000000      2.374400000000000
H       2.380200000000000      2.674900000000000      2.749800000000000
H       2.098800000000000      0.948800000000000      2.975400000000000
H       2.550600000000000      4.380900000000000      1.111300000000000
H      -0.381000000000000      1.164400000000000     -0.312400000000000
H      -0.459900000000000      0.567900000000000      1.385400000000000
H      -1.555900000000000     -0.851100000000000     -1.077900000000000
H      -1.585900000000000     -1.497100000000000      0.556000000000000
H       0.584800000000000      3.812000000000000     -1.169300000000000
H       0.643300000000000      5.333800000000000     -0.266800000000000
H       0.227300000000000      3.847800000000000      0.568800000000000
H       3.041200000000000      4.608400000000000     -1.902300000000000
H       4.269700000000000      4.771300000000000     -0.634200000000000
H       2.960000000000000      5.953100000000000     -0.750200000000000
H      -2.946500000000000      1.097000000000000     -0.316400000000000
H      -2.985200000000000      0.421000000000000      1.309400000000000
H      -4.119100000000000     -0.923300000000000     -1.197400000000000
H      -4.145000000000000     -1.623200000000000      0.422900000000000
H      -5.501200000000000      0.309200000000000      1.249200000000000
H      -5.456700000000000      1.035700000000000     -0.358900000000000
H      -6.626700000000000     -0.984300000000000     -1.294000000000000
H      -6.691800000000000     -1.683700000000000      0.325400000000000
H      -8.027400000000000      0.298600000000000      1.112500000000000
H      -7.980500000000000      0.970200000000000     -0.519300000000000
H      -9.160000000000000     -1.053800000000000     -1.391300000000000
H      -9.185000000000000     -1.745000000000000      0.228100000000000
H     -10.575400000000000      0.182700000000000      1.023200000000000
H     -10.567100000000000      0.852400000000000     -0.605300000000000
H     -12.669900000000000     -0.360100000000000     -0.161200000000000
H     -11.771900000000000     -1.847100000000000      0.192900000000000
H     -11.763999999999999     -1.175000000000000     -1.449100000000000
