80

N       2.518000000000000      2.252900000000000      0.546000000000000
N      -4.603500000000000      2.224800000000000     -0.661400000000000
C      -0.353600000000000      2.552800000000000      0.037200000000000
C      -1.726700000000000      1.924200000000000     -0.183400000000000
C       0.633200000000000      2.116300000000000     -1.050900000000000
C       0.203600000000000      2.189000000000000      1.417600000000000
C      -2.705400000000000      2.336800000000000      0.921300000000000
C      -2.296900000000000      2.312700000000000     -1.551700000000000
C       2.037100000000000      2.661800000000000     -0.780500000000000
C       1.621400000000000      2.732600000000000      1.606300000000000
C      -4.109500000000000      1.791600000000000      0.652600000000000
C      -3.714800000000000      1.768800000000000     -1.738600000000000
C       3.879800000000000      2.738400000000000      0.768700000000000
C       4.891400000000000      1.808200000000000      0.100600000000000
C      -5.965600000000000      1.739400000000000     -0.881800000000000
C       4.774900000000000      0.383700000000000      0.648600000000000
C       5.757300000000000     -0.563200000000000     -0.044300000000000
C       5.656300000000000     -2.013900000000000      0.440700000000000
C       4.287100000000000     -2.681700000000000      0.264100000000000
C       3.800100000000000     -2.693600000000000     -1.186900000000000
C       2.426600000000000     -3.351000000000000     -1.365200000000000
C       1.275200000000000     -2.715500000000000     -0.577300000000000
C      -0.060600000000000     -3.441100000000000     -0.755100000000000
C      -1.157600000000000     -2.817700000000000      0.111200000000000
C      -2.504600000000000     -3.538500000000000     -0.013100000000000
C      -3.601000000000000     -2.938300000000000      0.870100000000000
C      -4.936900000000000     -3.677100000000000      0.755400000000000
C      -6.025400000000000     -3.102200000000000      1.649600000000000
H      -0.449200000000000      3.647000000000000     -0.010700000000000
H      -1.627700000000000      0.829700000000000     -0.155500000000000
H       0.671700000000000      1.020700000000000     -1.111800000000000
H       0.325900000000000      2.485900000000000     -2.034500000000000
H      -0.411700000000000      2.613000000000000      2.217700000000000
H       0.208100000000000      1.099200000000000      1.550600000000000
H      -2.391000000000000      1.946500000000000      1.894700000000000
H      -2.746200000000000      3.430600000000000      1.005000000000000
H      -2.305700000000000      3.404700000000000     -1.663800000000000
H      -1.685300000000000      1.907500000000000     -2.364400000000000
H       2.026500000000000      3.756000000000000     -0.873300000000000
H       2.694900000000000      2.277100000000000     -1.567400000000000
H       1.598100000000000      3.830100000000000      1.630700000000000
H       1.983900000000000      2.391600000000000      2.583900000000000
H      -4.776300000000000      2.163600000000000      1.440100000000000
H      -4.100200000000000      0.696100000000000      0.725200000000000
H      -3.685800000000000      0.671800000000000     -1.783400000000000
H      -4.091800000000000      2.124000000000000     -2.705500000000000
H       4.011800000000000      3.768800000000000      0.415500000000000
H       4.112100000000000      2.749500000000000      1.842100000000000
H       4.768500000000000      1.806900000000000     -0.988100000000000
H       5.901400000000000      2.189000000000000      0.297000000000000
H      -6.353300000000000      2.102300000000000     -1.840100000000000
H      -6.020700000000000      0.644700000000000     -0.879200000000000
H      -6.640000000000000      2.120300000000000     -0.106700000000000
H       4.962600000000000      0.382000000000000      1.729000000000000
H       3.756500000000000      0.013900000000000      0.494700000000000
H       5.615300000000000     -0.522200000000000     -1.130100000000000
H       6.780100000000000     -0.211100000000000      0.140800000000000
H       5.926500000000000     -2.053100000000000      1.503300000000000
H       6.410000000000000     -2.608200000000000     -0.090700000000000
H       4.355800000000000     -3.715000000000000      0.626400000000000
H       3.565500000000000     -2.177200000000000      0.913200000000000
H       3.731100000000000     -1.669500000000000     -1.569700000000000
H       4.530200000000000     -3.220600000000000     -1.812700000000000
H       2.508100000000000     -4.408100000000000     -1.082000000000000
H       2.173600000000000     -3.336600000000000     -2.432700000000000
H       1.166900000000000     -1.667100000000000     -0.880600000000000
H       1.517100000000000     -2.714100000000000      0.490900000000000
H      -0.359000000000000     -3.408000000000000     -1.809600000000000
H       0.058900000000000     -4.497500000000000     -0.486000000000000
H      -1.286000000000000     -1.764800000000000     -0.168000000000000
H      -0.841900000000000     -2.831200000000000      1.161800000000000
H      -2.370700000000000     -4.595000000000000      0.250100000000000
H      -2.830600000000000     -3.512100000000000     -1.060200000000000
H      -3.269800000000000     -2.953800000000000      1.915800000000000
H      -3.746200000000000     -1.885400000000000      0.599100000000000
H      -4.791500000000000     -4.733200000000000      1.011600000000000
H      -5.280300000000000     -3.646500000000000     -0.285600000000000
H      -6.223300000000000     -2.055400000000000      1.398000000000000
H      -6.955800000000000     -3.665100000000000      1.526500000000000
H      -5.732100000000000     -3.152900000000000      2.702800000000000
