80

O       0.472300000000000      0.248700000000000      1.646400000000000
N       0.079500000000000      0.134900000000000      0.334500000000000
C      -1.229400000000000      0.841200000000000      0.156400000000000
C      -0.090100000000000     -1.314700000000000      0.002800000000000
C       1.112800000000000      0.744000000000000     -0.552700000000000
C      -1.192900000000000      2.140800000000000      0.970300000000000
C      -1.451600000000000      1.006100000000000     -1.350100000000000
C      -0.441700000000000     -1.420000000000000     -1.489200000000000
C      -1.163000000000000     -1.898900000000000      0.941100000000000
C       1.269000000000000      2.225600000000000     -0.195300000000000
C       2.384200000000000     -0.100000000000000     -0.518000000000000
C      -2.452300000000000      2.407600000000000      1.809400000000000
C      -2.638300000000000      1.846400000000000     -1.818800000000000
C       0.029500000000000     -2.694700000000000     -2.203800000000000
C      -0.667300000000000     -3.020500000000000      1.871500000000000
C       2.394900000000000      2.965300000000000     -0.929900000000000
C       3.126800000000000     -0.086300000000000      0.822300000000000
C      -3.567300000000000      3.169700000000000      1.090300000000000
C      -4.026700000000000      1.252300000000000     -1.594300000000000
C      -0.447000000000000     -4.005300000000000     -1.577500000000000
C      -1.126000000000000     -4.426600000000000      1.460500000000000
C       3.694800000000000      3.102900000000000     -0.122000000000000
C       4.642700000000000     -0.139300000000000      0.641200000000000
C      -4.770900000000000      2.337700000000000      0.646000000000000
C      -4.525200000000000      1.066700000000000     -0.163200000000000
C       0.535500000000000     -4.537400000000000     -0.531700000000000
C      -0.124200000000000     -5.248600000000000      0.643800000000000
C       4.842300000000000      2.173600000000000     -0.547400000000000
C       5.329800000000000      1.228800000000000      0.557500000000000
H      -2.018800000000000      0.224600000000000      0.554500000000000
H       0.853900000000000     -1.792900000000000      0.246200000000000
H       0.884500000000000      0.718000000000000     -1.609800000000000
H      -0.399500000000000      2.203400000000000      1.716000000000000
H      -1.114000000000000      3.029000000000000      0.340300000000000
H      -1.748400000000000      0.134800000000000     -1.894200000000000
H      -0.659500000000000      1.516600000000000     -1.890400000000000
H      -0.054500000000000     -0.681300000000000     -2.180100000000000
H      -1.528000000000000     -1.546900000000000     -1.576100000000000
H      -1.528900000000000     -1.166000000000000      1.668000000000000
H      -2.053000000000000     -2.225000000000000      0.392300000000000
H       1.385300000000000      2.416500000000000      0.872800000000000
H       0.420200000000000      2.775500000000000     -0.585500000000000
H       2.268200000000000     -1.128700000000000     -0.868300000000000
H       3.041500000000000      0.308000000000000     -1.291800000000000
H      -2.824600000000000      1.489000000000000      2.277100000000000
H      -2.136700000000000      3.047900000000000      2.646000000000000
H      -2.573600000000000      2.864200000000000     -1.434900000000000
H      -2.537000000000000      1.970400000000000     -2.908300000000000
H      -0.361400000000000     -2.657200000000000     -3.230100000000000
H       1.122000000000000     -2.693200000000000     -2.298800000000000
H       0.415300000000000     -2.982400000000000      2.034700000000000
H      -1.113200000000000     -2.834000000000000      2.859100000000000
H       2.573300000000000      2.547000000000000     -1.926700000000000
H       2.039200000000000      3.991200000000000     -1.105400000000000
H       2.881500000000000      0.777800000000000      1.444800000000000
H       2.819900000000000     -0.974100000000000      1.389200000000000
H      -3.963600000000000      3.908600000000000      1.801800000000000
H      -3.183500000000000      3.778000000000000      0.268300000000000
H      -4.071800000000000      0.276500000000000     -2.095500000000000
H      -4.749900000000000      1.886200000000000     -2.124300000000000
H      -1.462200000000000     -3.891100000000000     -1.188500000000000
H      -0.522000000000000     -4.760300000000000     -2.371300000000000
H      -1.325100000000000     -4.997600000000000      2.377500000000000
H      -2.089000000000000     -4.381200000000000      0.939300000000000
H       4.053500000000000      4.129100000000000     -0.286700000000000
H       3.502700000000000      3.043400000000000      0.954600000000000
H       5.072400000000000     -0.663100000000000      1.504800000000000
H       4.903600000000000     -0.741700000000000     -0.237500000000000
H      -5.318600000000000      2.043300000000000      1.551600000000000
H      -5.455000000000000      2.990200000000000      0.088600000000000
H      -5.504000000000000      0.572300000000000     -0.250700000000000
H      -3.929300000000000      0.349100000000000      0.396500000000000
H       1.206100000000000     -5.251800000000000     -1.028000000000000
H       1.200700000000000     -3.759800000000000     -0.152100000000000
H       0.671000000000000     -5.592100000000000      1.318000000000000
H      -0.627900000000000     -6.154400000000000      0.284000000000000
H       4.637400000000000      1.636100000000000     -1.477100000000000
H       5.694300000000000      2.826100000000000     -0.786400000000000
H       5.273500000000000      1.728100000000000      1.532500000000000
H       6.397100000000000      1.035600000000000      0.385900000000000
