80

N       4.201000000000000     -0.269700000000000      0.009600000000000
N      -4.104800000000000      0.451600000000000      0.563200000000000
C       2.646600000000000      1.839100000000000      1.740300000000000
C      -2.833500000000000      1.279000000000000     -2.185800000000000
C       4.052500000000000      1.275700000000000      2.017100000000000
C      -4.325300000000000      1.327300000000000     -1.808500000000000
C       2.266700000000000      2.017000000000000      0.257300000000000
C      -1.836200000000000      1.582900000000000     -1.050800000000000
C       4.366800000000000     -0.119400000000000      1.459500000000000
C      -4.802100000000000      0.351500000000000     -0.723700000000000
C       5.012500000000000      0.674200000000000     -0.767400000000000
C      -4.175100000000000      1.791200000000000      1.157900000000000
C       3.342700000000000      2.671400000000000     -0.614700000000000
C      -2.184000000000000      2.801000000000000     -0.189700000000000
C       4.131200000000000      1.694900000000000     -1.495000000000000
C      -2.798400000000000      2.463900000000000      1.173700000000000
C       4.464000000000000     -1.652700000000000     -0.389200000000000
C      -4.600000000000000     -0.568600000000000      1.487800000000000
C       3.674800000000000     -1.996600000000000     -1.652100000000000
C      -4.118300000000000     -1.970000000000000      1.105900000000000
C       1.566600000000000      1.019100000000000      2.454200000000000
C      -2.468700000000000     -0.053500000000000     -2.849200000000000
C       2.159100000000000     -1.860600000000000     -1.474800000000000
C      -2.591600000000000     -2.102800000000000      1.120900000000000
C       1.579000000000000     -2.823500000000000     -0.435200000000000
C      -2.103300000000000     -3.508100000000000      0.752000000000000
C       0.055600000000000     -2.693600000000000     -0.353000000000000
C      -0.577800000000000     -3.620800000000000      0.689600000000000
H       2.630100000000000      2.840900000000000      2.192900000000000
H      -2.690900000000000      2.058200000000000     -2.948100000000000
H       4.192400000000000      1.231000000000000      3.106100000000000
H       4.806400000000000      1.993500000000000      1.674900000000000
H      -4.912200000000000      1.121500000000000     -2.714600000000000
H      -4.598500000000000      2.352500000000000     -1.535100000000000
H       1.925100000000000      1.076000000000000     -0.181300000000000
H       1.383200000000000      2.670600000000000      0.235100000000000
H      -1.662000000000000      0.703200000000000     -0.423000000000000
H      -0.865500000000000      1.781600000000000     -1.527300000000000
H       5.394100000000000     -0.380600000000000      1.747600000000000
H       3.711800000000000     -0.834600000000000      1.972900000000000
H      -5.879800000000000      0.508100000000000     -0.579100000000000
H      -4.694400000000000     -0.653200000000000     -1.143200000000000
H       5.761700000000000      1.189300000000000     -0.154400000000000
H       5.599600000000000      0.157500000000000     -1.538700000000000
H      -4.905600000000000      2.436800000000000      0.655600000000000
H      -4.522300000000000      1.746600000000000      2.199000000000000
H       2.836400000000000      3.367400000000000     -1.297000000000000
H       4.023500000000000      3.287700000000000     -0.017500000000000
H      -1.248500000000000      3.338800000000000      0.014500000000000
H      -2.818000000000000      3.509600000000000     -0.733700000000000
H       3.435100000000000      1.170400000000000     -2.162200000000000
H       4.781100000000000      2.289200000000000     -2.150600000000000
H      -2.095500000000000      1.839300000000000      1.740900000000000
H      -2.889900000000000      3.400400000000000      1.738900000000000
H       4.172000000000000     -2.357200000000000      0.398700000000000
H       5.535900000000000     -1.830100000000000     -0.547500000000000
H      -5.695200000000000     -0.550000000000000      1.555900000000000
H      -4.220700000000000     -0.374500000000000      2.500200000000000
H       3.993800000000000     -1.363500000000000     -2.488600000000000
H       3.910500000000000     -3.027700000000000     -1.943500000000000
H      -4.532100000000000     -2.677600000000000      1.836300000000000
H      -4.514800000000000     -2.286400000000000      0.135800000000000
H       1.476100000000000      0.013800000000000      2.029500000000000
H       1.790800000000000      0.920500000000000      3.521400000000000
H       0.590000000000000      1.507000000000000      2.363700000000000
H      -2.539400000000000     -0.888800000000000     -2.145100000000000
H      -3.131400000000000     -0.263500000000000     -3.695100000000000
H      -1.442200000000000     -0.026100000000000     -3.230500000000000
H       1.690500000000000     -2.071100000000000     -2.444800000000000
H       1.886400000000000     -0.831600000000000     -1.228500000000000
H      -2.184000000000000     -1.380900000000000      0.410800000000000
H      -2.206900000000000     -1.833600000000000      2.112000000000000
H       1.847100000000000     -3.854700000000000     -0.693300000000000
H       1.997200000000000     -2.613600000000000      0.554900000000000
H      -2.524100000000000     -3.796900000000000     -0.218900000000000
H      -2.482400000000000     -4.227000000000000      1.488200000000000
H      -0.382800000000000     -2.902900000000000     -1.336500000000000
H      -0.172400000000000     -1.649200000000000     -0.115400000000000
H      -0.157500000000000     -3.398400000000000      1.678100000000000
H      -0.311800000000000     -4.659200000000000      0.458300000000000
