80

O      -8.071800000000000     -2.652000000000000     -0.231200000000000
N      -6.060000000000000     -1.391900000000000     -0.110300000000000
C       3.805000000000000     -0.112800000000000      0.425700000000000
C       2.537400000000000      0.650100000000000     -0.186800000000000
C       4.977800000000000     -0.011100000000000     -0.614700000000000
C       2.148300000000000      0.108800000000000     -1.605900000000000
C       4.579700000000000     -0.500400000000000     -2.017300000000000
C       3.358000000000000      0.228000000000000     -2.547400000000000
C       1.315700000000000      0.667300000000000      0.772000000000000
C       3.434200000000000     -1.592400000000000      0.736600000000000
C       6.321900000000000     -0.651000000000000     -0.212800000000000
C       0.950000000000000      0.826400000000000     -2.285400000000000
C       4.232600000000000      0.633500000000000      1.718900000000000
C      -0.919000000000000      1.974000000000000      1.136100000000000
C       0.588700000000000      2.020000000000000      0.765400000000000
C      -1.751600000000000      1.056600000000000      0.158400000000000
C       4.288100000000000     -2.366000000000000      1.742300000000000
C      -0.432700000000000      0.251700000000000     -1.935200000000000
C       6.301300000000000     -2.138100000000000      0.133800000000000
C      -1.442300000000000      1.259000000000000     -1.352900000000000
C       5.798200000000000     -2.410100000000000      1.543000000000000
C      -3.273300000000000      1.194400000000000      0.366600000000000
C      -1.053800000000000      1.453800000000000      2.586500000000000
C      -1.431200000000000      3.434000000000000      1.116100000000000
C      -3.960100000000000     -0.133500000000000      0.010700000000000
C      -3.790400000000000      2.369700000000000     -0.457600000000000
C      -5.470400000000000     -0.107200000000000      0.252200000000000
C      -7.502000000000000     -1.389200000000000      0.119800000000000
C      -9.478400000000001     -2.671500000000000     -0.026300000000000
H       2.858400000000000      1.693800000000000     -0.325500000000000
H       5.198100000000000      1.062100000000000     -0.728000000000000
H       1.899200000000000     -0.956900000000000     -1.523600000000000
H       4.390400000000000     -1.578700000000000     -2.027100000000000
H       5.408600000000000     -0.331700000000000     -2.716500000000000
H       3.603200000000000      1.286200000000000     -2.706300000000000
H       3.110800000000000     -0.188000000000000     -3.532100000000000
H       1.611700000000000      0.481700000000000      1.807600000000000
H       0.653400000000000     -0.165000000000000      0.530200000000000
H       3.386200000000000     -2.174700000000000     -0.189700000000000
H       2.413300000000000     -1.635300000000000      1.134300000000000
H       6.770300000000000     -0.086600000000000      0.613500000000000
H       7.022600000000000     -0.516700000000000     -1.048600000000000
H       1.052100000000000      0.700500000000000     -3.372900000000000
H       1.010400000000000      1.908000000000000     -2.136100000000000
H       3.522800000000000      0.489900000000000      2.538100000000000
H       5.200500000000000      0.300800000000000      2.099200000000000
H       4.318800000000000      1.711000000000000      1.537200000000000
H       1.115200000000000      2.673700000000000      1.476200000000000
H       0.703300000000000      2.529500000000000     -0.193300000000000
H      -1.494500000000000      0.022400000000000      0.420000000000000
H       3.920400000000000     -3.401500000000000      1.739800000000000
H       4.081000000000000     -2.000200000000000      2.756100000000000
H      -0.861300000000000     -0.107600000000000     -2.882700000000000
H      -0.360300000000000     -0.651100000000000     -1.321200000000000
H       7.338800000000000     -2.494600000000000      0.085700000000000
H       5.748500000000000     -2.726400000000000     -0.605200000000000
H      -2.340600000000000      1.085600000000000     -1.954800000000000
H      -1.140200000000000      2.288000000000000     -1.573500000000000
H       6.145000000000000     -3.406200000000000      1.848800000000000
H       6.280200000000000     -1.718200000000000      2.244500000000000
H      -3.494800000000000      1.390100000000000      1.420400000000000
H      -2.067100000000000      1.574800000000000      2.980800000000000
H      -0.385800000000000      2.000400000000000      3.262600000000000
H      -0.796200000000000      0.391600000000000      2.657400000000000
H      -2.460300000000000      3.532900000000000      1.472100000000000
H      -1.323700000000000      3.896300000000000      0.130700000000000
H      -0.829300000000000      4.048100000000000      1.799300000000000
H      -3.767100000000000     -0.395600000000000     -1.037200000000000
H      -3.524400000000000     -0.938500000000000      0.617900000000000
H      -3.102100000000000      3.187500000000000     -0.654100000000000
H      -4.175000000000000      2.045200000000000     -1.432300000000000
H      -4.652000000000000      2.812300000000000      0.058300000000000
H      -5.660000000000000      0.108300000000000      1.310500000000000
H      -5.932700000000000      0.688800000000000     -0.342200000000000
H      -5.878700000000000     -1.588700000000000     -1.094000000000000
H      -7.708900000000000     -1.198500000000000      1.179500000000000
H      -7.978500000000000     -0.608100000000000     -0.484800000000000
H      -9.853800000000000     -3.658600000000000     -0.309000000000000
H      -9.967200000000000     -1.919100000000000     -0.652600000000000
H      -9.714600000000001     -2.496300000000000      1.027700000000000
