80

O       6.102100000000000     -2.422000000000000     -0.377700000000000
N      -2.679900000000000     -1.094900000000000      0.942300000000000
C       1.712500000000000      1.601200000000000     -0.405200000000000
C       2.123300000000000      3.050800000000000     -0.412100000000000
C       2.767500000000000      2.080700000000000     -1.367300000000000
C       2.089100000000000      0.716900000000000      0.748600000000000
C       2.196700000000000     -0.810100000000000      0.439200000000000
C       1.185600000000000      4.090600000000000     -0.920200000000000
C       3.341000000000000     -0.958600000000000     -0.611700000000000
C       0.850900000000000     -1.399400000000000     -0.071500000000000
C       3.980600000000000     -2.341500000000000     -0.665700000000000
C      -0.397800000000000     -0.893600000000000      0.631400000000000
C       0.267700000000000      4.757200000000000      0.143300000000000
C       2.590300000000000     -1.564200000000000      1.730300000000000
C       4.959700000000000     -2.622500000000000      0.490000000000000
C       5.244000000000000     -2.412100000000000     -1.544400000000000
C      -0.614700000000000     -1.514800000000000      2.013400000000000
C      -1.682900000000000     -1.217400000000000     -0.121800000000000
C       2.962900000000000     -3.443300000000000     -0.921900000000000
C      -2.111800000000000     -1.807100000000000      2.088700000000000
C       1.095600000000000      5.384300000000000      1.277700000000000
C      -0.641400000000000      3.669500000000000      0.750600000000000
C      -0.626200000000000      5.836000000000000     -0.491100000000000
C      -3.980500000000000     -1.616700000000000      0.550500000000000
C      -4.722500000000000     -0.585400000000000     -0.305400000000000
C      -6.135400000000000     -1.009300000000000     -0.790600000000000
C      -6.832000000000000      0.136300000000000     -1.543300000000000
C      -6.062900000000000     -2.244600000000000     -1.703400000000000
C      -6.981600000000000     -1.366000000000000      0.447500000000000
H       0.747100000000000      1.352300000000000     -0.827800000000000
H       2.771500000000000      3.418100000000000      0.374100000000000
H       2.501100000000000      2.132600000000000     -2.416400000000000
H       3.811100000000000      1.854600000000000     -1.189700000000000
H       3.055600000000000      1.054800000000000      1.151200000000000
H       1.390300000000000      0.894000000000000      1.574400000000000
H       0.559300000000000      3.675300000000000     -1.721700000000000
H       1.789400000000000      4.875500000000000     -1.395200000000000
H       2.965400000000000     -0.697300000000000     -1.609300000000000
H       4.136400000000000     -0.236400000000000     -0.384900000000000
H       0.830300000000000     -2.489000000000000     -0.025000000000000
H       0.753900000000000     -1.145000000000000     -1.135800000000000
H      -0.390100000000000      0.194500000000000      0.745500000000000
H       3.506500000000000     -1.152000000000000      2.160500000000000
H       2.652400000000000     -2.648100000000000      1.655800000000000
H       1.861100000000000     -1.367100000000000      2.520800000000000
H       5.057200000000000     -1.920400000000000      1.314200000000000
H       4.953400000000000     -3.643100000000000      0.887800000000000
H       5.438800000000000     -1.541800000000000     -2.178500000000000
H       5.381300000000000     -3.323100000000000     -2.135900000000000
H      -0.319100000000000     -0.811300000000000      2.799500000000000
H      -0.063100000000000     -2.450200000000000      2.153800000000000
H      -1.847600000000000     -0.505800000000000     -0.937000000000000
H      -1.649600000000000     -2.232400000000000     -0.539100000000000
H       2.272100000000000     -3.176200000000000     -1.728200000000000
H       2.407000000000000     -3.751600000000000     -0.037200000000000
H       3.471700000000000     -4.357700000000000     -1.253800000000000
H      -2.274100000000000     -2.890200000000000      2.013000000000000
H      -2.542000000000000     -1.459600000000000      3.033500000000000
H       1.637100000000000      4.632900000000000      1.861300000000000
H       0.450800000000000      5.926700000000000      1.979100000000000
H       1.826000000000000      6.097900000000000      0.880700000000000
H      -1.374100000000000      4.111800000000000      1.435900000000000
H      -1.199500000000000      3.136500000000000     -0.027500000000000
H      -0.073500000000000      2.933500000000000      1.327700000000000
H      -1.292700000000000      6.291700000000000      0.249600000000000
H      -1.249600000000000      5.413000000000000     -1.286700000000000
H      -0.019800000000000      6.635000000000000     -0.931900000000000
H      -3.886200000000000     -2.580800000000000      0.038900000000000
H      -4.564400000000000     -1.792600000000000      1.460900000000000
H      -4.124500000000000     -0.340100000000000     -1.192600000000000
H      -4.810900000000000      0.349200000000000      0.266500000000000
H      -6.930400000000000      1.023400000000000     -0.907700000000000
H      -6.259000000000000      0.424600000000000     -2.431500000000000
H      -7.836600000000000     -0.152000000000000     -1.872400000000000
H      -5.410500000000000     -2.057300000000000     -2.563400000000000
H      -7.054800000000000     -2.505600000000000     -2.090200000000000
H      -5.682200000000000     -3.125800000000000     -1.177600000000000
H      -6.973100000000000     -0.554300000000000      1.183600000000000
H      -6.635900000000000     -2.280700000000000      0.939900000000000
H      -8.026899999999999     -1.540600000000000      0.165300000000000
