80

N       4.943200000000000     -1.333100000000000      2.194500000000000
N      -4.993100000000000      1.681900000000000     -1.983500000000000
C       6.541900000000000     -0.010700000000000      0.895000000000000
C      -6.727900000000000      0.726600000000000     -0.546000000000000
C       5.124200000000000     -0.589700000000000      0.947100000000000
C      -5.238000000000000      1.057000000000000     -0.683500000000000
C       6.669100000000000      0.943700000000000     -0.304900000000000
C       7.604700000000000     -1.114400000000000      1.007700000000000
C      -7.026700000000000      0.264300000000000      0.890600000000000
C      -7.205600000000000     -0.198100000000000     -1.676100000000000
C       4.077500000000000      0.529600000000000      0.819400000000000
C      -4.784700000000000      1.978100000000000      0.462300000000000
C       8.085500000000000      1.441500000000000     -0.599400000000000
C       7.659300000000000     -2.163900000000000     -0.100600000000000
C      -8.433900000000000     -0.289100000000000      1.122000000000000
C      -6.587200000000000     -1.592000000000000     -1.762800000000000
C       8.762100000000000      0.758600000000000     -1.790000000000000
C       7.981500000000000     -1.679600000000000     -1.513500000000000
C      -8.507099999999999     -1.814700000000000      1.216600000000000
C      -6.813100000000000     -2.536800000000000     -0.583400000000000
C       9.158300000000001     -0.708100000000000     -1.609900000000000
C      -8.252900000000000     -2.598400000000000     -0.072600000000000
C       2.635600000000000      0.009200000000000      0.840800000000000
C      -3.319100000000000      2.433200000000000      0.406100000000000
C       1.631100000000000      1.154300000000000      0.685700000000000
C      -2.319600000000000      1.278900000000000      0.511600000000000
C       0.192900000000000      0.632600000000000      0.678900000000000
C      -0.858000000000000      1.739200000000000      0.547600000000000
H       6.680500000000000      0.617900000000000      1.788800000000000
H      -7.293300000000000      1.662500000000000     -0.679200000000000
H       4.972700000000000     -1.282200000000000      0.110300000000000
H      -4.653500000000000      0.132100000000000     -0.628800000000000
H       6.207600000000000      0.530300000000000     -1.207600000000000
H       6.100600000000000      1.852600000000000     -0.067300000000000
H       8.592100000000000     -0.648100000000000      1.101000000000000
H       7.497500000000000     -1.641700000000000      1.963500000000000
H      -6.269400000000000     -0.434200000000000      1.261100000000000
H      -6.963600000000000      1.145500000000000      1.542900000000000
H      -8.295299999999999     -0.298300000000000     -1.616500000000000
H      -7.062300000000000      0.292600000000000     -2.646600000000000
H       4.211300000000000      1.267200000000000      1.621500000000000
H       4.185100000000000      1.058400000000000     -0.133000000000000
H      -5.416300000000000      2.876100000000000      0.486700000000000
H      -4.899700000000000      1.480100000000000      1.431000000000000
H       8.012100000000000      2.506900000000000     -0.858000000000000
H       8.725300000000001      1.402500000000000      0.288500000000000
H       8.435000000000000     -2.888500000000000      0.183100000000000
H       6.726000000000000     -2.737800000000000     -0.125800000000000
H      -8.782900000000000      0.095400000000000      2.090400000000000
H      -9.148999999999999      0.091200000000000      0.384900000000000
H      -7.009500000000000     -2.073900000000000     -2.655300000000000
H      -5.511400000000000     -1.518400000000000     -1.958200000000000
H       8.125600000000000      0.858200000000000     -2.678500000000000
H       9.678100000000001      1.320800000000000     -2.014400000000000
H       8.231999999999999     -2.573200000000000     -2.101600000000000
H       7.087900000000000     -1.270500000000000     -1.994300000000000
H      -7.821400000000000     -2.165700000000000      1.998200000000000
H      -9.515300000000000     -2.074500000000000      1.565200000000000
H      -6.533900000000000     -3.541600000000000     -0.928900000000000
H      -6.112600000000000     -2.315900000000000      0.227700000000000
H       9.737299999999999     -0.984700000000000     -2.501400000000000
H       9.847899999999999     -0.822500000000000     -0.766400000000000
H      -8.473400000000000     -3.650100000000000      0.155300000000000
H      -8.970499999999999     -2.310900000000000     -0.848700000000000
H       2.495200000000000     -0.719200000000000      0.033100000000000
H       2.420300000000000     -0.502100000000000      1.784800000000000
H      -3.149300000000000      3.117500000000000      1.247600000000000
H      -3.124700000000000      3.020300000000000     -0.497900000000000
H       1.758000000000000      1.869800000000000      1.507000000000000
H       1.826100000000000      1.695000000000000     -0.248200000000000
H      -2.530800000000000      0.696700000000000      1.416900000000000
H      -2.443000000000000      0.600100000000000     -0.339500000000000
H       0.003600000000000      0.073500000000000      1.603500000000000
H       0.068200000000000     -0.075500000000000     -0.149700000000000
H      -0.732100000000000      2.438800000000000      1.384000000000000
H      -0.651300000000000      2.311500000000000     -0.365800000000000
H       5.549700000000000     -2.151200000000000      2.207400000000000
H       4.000200000000000     -1.713600000000000      2.245200000000000
H      -5.153500000000000      1.009800000000000     -2.731900000000000
H      -4.010400000000000      1.935400000000000     -2.070400000000000
