80

N       7.823500000000000      0.489900000000000     -2.009000000000000
N      -8.632700000000000     -0.461000000000000     -0.031200000000000
C       0.139700000000000      0.608900000000000     -0.030100000000000
C       0.077700000000000      0.924800000000000      1.476300000000000
C       2.422600000000000     -0.453400000000000      0.287600000000000
C      -2.154100000000000      1.649200000000000     -0.341500000000000
C       1.010700000000000     -0.628100000000000     -0.290600000000000
C      -1.271500000000000      0.420200000000000     -0.604500000000000
C       1.487700000000000      1.113600000000000      2.048900000000000
C      -0.792500000000000      2.160400000000000      1.735800000000000
C       2.366600000000000     -0.107100000000000      1.781200000000000
C      -2.194700000000000      1.987300000000000      1.154400000000000
C       3.258300000000000     -1.711200000000000      0.057400000000000
C      -3.565300000000000      1.424600000000000     -0.881500000000000
C       4.739500000000000     -1.499900000000000      0.484100000000000
C      -4.249000000000000      0.202000000000000     -0.204200000000000
C       3.245600000000000     -2.049000000000000     -1.449900000000000
C       2.630800000000000     -2.894700000000000      0.819000000000000
C      -3.479300000000000      1.137000000000000     -2.396700000000000
C      -4.403500000000000      2.702200000000000     -0.683000000000000
C       5.507200000000000     -0.423000000000000     -0.294800000000000
C      -5.696600000000000     -0.071500000000000     -0.635000000000000
C       6.971600000000000     -0.356000000000000      0.161400000000000
C      -6.288400000000000     -1.250600000000000      0.150200000000000
C       7.792700000000000      0.723200000000000     -0.565200000000000
C      -7.733200000000000     -1.593300000000000     -0.252100000000000
C       9.227800000000000      0.744000000000000     -0.040200000000000
C      -8.241099999999999     -2.788700000000000      0.553400000000000
H       0.602300000000000      1.461700000000000     -0.548000000000000
H      -0.384800000000000      0.072200000000000      1.994200000000000
H       2.874100000000000      0.397000000000000     -0.239100000000000
H      -1.698600000000000      2.503400000000000     -0.863300000000000
H       0.493600000000000     -1.490000000000000      0.140500000000000
H       1.044900000000000     -0.778300000000000     -1.374900000000000
H      -1.169400000000000      0.231300000000000     -1.678000000000000
H      -1.691200000000000     -0.483200000000000     -0.151800000000000
H       1.956400000000000      2.002000000000000      1.606500000000000
H       1.431800000000000      1.289800000000000      3.129900000000000
H      -0.867600000000000      2.345100000000000      2.814200000000000
H      -0.323700000000000      3.049000000000000      1.293900000000000
H       1.955000000000000     -0.927600000000000      2.376400000000000
H       3.362800000000000      0.114300000000000      2.175800000000000
H      -2.742300000000000      2.917700000000000      1.336100000000000
H      -2.684300000000000      1.204000000000000      1.739700000000000
H       5.270500000000000     -2.453000000000000      0.347400000000000
H       4.808600000000000     -1.296900000000000      1.558600000000000
H      -4.271600000000000      0.332700000000000      0.881600000000000
H      -3.686200000000000     -0.716700000000000     -0.398900000000000
H       3.410600000000000     -1.166000000000000     -2.076800000000000
H       4.025500000000000     -2.780900000000000     -1.693200000000000
H       2.300100000000000     -2.506500000000000     -1.762800000000000
H       3.194000000000000     -3.809500000000000      0.589700000000000
H       2.693300000000000     -2.784500000000000      1.905000000000000
H       1.597500000000000     -3.114100000000000      0.543800000000000
H      -3.109100000000000      0.129800000000000     -2.614900000000000
H      -4.461200000000000      1.217500000000000     -2.877100000000000
H      -2.826000000000000      1.858800000000000     -2.900800000000000
H      -5.320000000000000      2.684100000000000     -1.283500000000000
H      -4.711600000000000      2.833800000000000      0.359400000000000
H      -3.846400000000000      3.594600000000000     -0.990700000000000
H       5.472700000000000     -0.646100000000000     -1.364300000000000
H       5.048100000000000      0.559200000000000     -0.143200000000000
H      -6.310600000000000      0.817600000000000     -0.462100000000000
H      -5.739100000000000     -0.300400000000000     -1.705300000000000
H       6.998800000000000     -0.156500000000000      1.240400000000000
H       7.439800000000000     -1.338200000000000      0.012700000000000
H      -6.247800000000000     -1.025300000000000      1.224200000000000
H      -5.657600000000000     -2.135000000000000     -0.007400000000000
H       7.340000000000000      1.704500000000000     -0.379800000000000
H      -7.755600000000000     -1.849400000000000     -1.317600000000000
H       9.734700000000000     -0.211900000000000     -0.214300000000000
H       9.814200000000000      1.531700000000000     -0.526300000000000
H       9.241600000000000      0.940500000000000      1.037400000000000
H      -8.247299999999999     -2.578700000000000      1.629000000000000
H      -9.260000000000000     -3.060800000000000      0.255600000000000
H      -7.604400000000000     -3.664200000000000      0.386200000000000
H       8.413900000000000      1.189800000000000     -2.457300000000000
H       6.892400000000000      0.618400000000000     -2.401800000000000
H      -8.634700000000000     -0.208300000000000      0.956400000000000
H      -9.589399999999999     -0.731200000000000     -0.256500000000000
