80

O      -2.611300000000000      1.684600000000000     -0.068500000000000
N       0.857700000000000      2.521600000000000      0.826700000000000
C      -5.021600000000000      1.437400000000000     -0.115000000000000
C      -3.535900000000000     -0.471000000000000      0.598200000000000
C      -4.784000000000000     -0.595100000000000     -1.590600000000000
C      -6.043200000000000     -0.760900000000000      0.588600000000000
C      -3.704600000000000      1.061800000000000      0.592000000000000
C      -4.963100000000000      0.934400000000000     -1.568600000000000
C      -6.213500000000000      0.768100000000000      0.598400000000000
C      -3.482000000000000     -0.967600000000000     -0.857600000000000
C      -4.734700000000000     -1.130100000000000      1.308700000000000
C      -5.973700000000000     -1.251600000000000     -0.868300000000000
C      -1.466800000000000      1.756900000000000      0.771500000000000
C      -0.333100000000000      2.410600000000000     -0.002300000000000
C       2.044800000000000      2.735600000000000      0.003500000000000
C       3.283300000000000      2.860300000000000      0.893800000000000
C       4.617100000000000      3.084000000000000      0.144500000000000
C       5.024600000000000      1.828000000000000     -0.652400000000000
C       5.131600000000000      0.527400000000000      0.157600000000000
C       5.692200000000000     -2.006500000000000      0.094500000000000
C       5.602100000000000     -0.670800000000000     -0.673900000000000
C       4.570300000000000      4.336800000000000     -0.733600000000000
C       4.404100000000000     -2.398600000000000      0.846300000000000
C       3.167900000000000     -2.663100000000000     -0.023000000000000
C       6.118600000000000     -3.154400000000000     -0.828600000000000
C       1.910200000000000     -2.990200000000000      0.788400000000000
C       0.665700000000000     -3.240400000000000     -0.085500000000000
C      -0.523400000000000     -3.616600000000000      0.802500000000000
C       0.300600000000000     -2.030800000000000     -0.947100000000000
H      -5.145800000000000      2.526400000000000     -0.121700000000000
H      -2.614300000000000     -0.771600000000000      1.105300000000000
H      -4.740000000000000     -0.948200000000000     -2.626800000000000
H      -6.891600000000000     -1.231300000000000      1.097800000000000
H      -3.763500000000000      1.430400000000000      1.625600000000000
H      -5.887300000000000      1.207200000000000     -2.093300000000000
H      -4.142400000000000      1.416500000000000     -2.113200000000000
H      -6.280700000000000      1.131100000000000      1.631200000000000
H      -7.151100000000000      1.044600000000000      0.100800000000000
H      -2.620600000000000     -0.537200000000000     -1.381700000000000
H      -3.345900000000000     -2.056200000000000     -0.874100000000000
H      -4.609000000000000     -2.219800000000000      1.322300000000000
H      -4.775500000000000     -0.800100000000000      2.353900000000000
H      -6.908000000000000     -1.010200000000000     -1.389800000000000
H      -5.869400000000000     -2.343400000000000     -0.891100000000000
H      -1.703900000000000      2.354600000000000      1.660300000000000
H      -1.157800000000000      0.757300000000000      1.093100000000000
H      -0.144000000000000      1.803700000000000     -0.897700000000000
H      -0.644300000000000      3.400400000000000     -0.356800000000000
H       0.982800000000000      1.667800000000000      1.370500000000000
H       1.914000000000000      3.650100000000000     -0.584800000000000
H       2.171700000000000      1.897000000000000     -0.689800000000000
H       3.134600000000000      3.721400000000000      1.561400000000000
H       3.361600000000000      1.997200000000000      1.564400000000000
H       5.387400000000000      3.251500000000000      0.909400000000000
H       4.326000000000000      1.673300000000000     -1.484000000000000
H       6.000600000000000      2.022700000000000     -1.116500000000000
H       5.814100000000000      0.676200000000000      1.002400000000000
H       4.145800000000000      0.294600000000000      0.567900000000000
H       6.477800000000000     -1.891200000000000      0.853700000000000
H       6.590900000000000     -0.441900000000000     -1.092200000000000
H       4.930900000000000     -0.790200000000000     -1.533800000000000
H       3.903500000000000      4.208100000000000     -1.591800000000000
H       4.234200000000000      5.206600000000000     -0.159900000000000
H       5.568100000000000      4.561200000000000     -1.126100000000000
H       4.609600000000000     -3.307500000000000      1.428200000000000
H       4.166000000000000     -1.632400000000000      1.593100000000000
H       2.985200000000000     -1.774400000000000     -0.634300000000000
H       3.364600000000000     -3.493400000000000     -0.710200000000000
H       5.433600000000000     -3.274400000000000     -1.673700000000000
H       6.168000000000000     -4.103100000000000     -0.284200000000000
H       7.114300000000000     -2.957200000000000     -1.241000000000000
H       2.105700000000000     -3.879400000000000      1.400900000000000
H       1.708400000000000     -2.166200000000000      1.484900000000000
H       0.870300000000000     -4.087100000000000     -0.752700000000000
H      -0.781700000000000     -2.801800000000000      1.487500000000000
H      -1.407200000000000     -3.841400000000000      0.195800000000000
H      -0.296200000000000     -4.504800000000000      1.401400000000000
H       1.066600000000000     -1.827000000000000     -1.700900000000000
H      -0.634900000000000     -2.210800000000000     -1.487500000000000
H       0.170500000000000     -1.131100000000000     -0.336400000000000
