80

N       0.999700000000000      1.883800000000000      0.075600000000000
N       3.938200000000000     -0.100200000000000      0.614000000000000
C      -1.245700000000000      1.408900000000000     -0.378000000000000
C      -3.949500000000000      0.053600000000000     -0.083800000000000
C      -2.352800000000000      1.540300000000000     -1.437600000000000
C      -1.422800000000000      0.085200000000000      0.408600000000000
C      -3.757200000000000      1.377100000000000     -0.854200000000000
C      -2.835100000000000     -0.104100000000000      0.971900000000000
C      -1.197000000000000      2.621100000000000      0.581400000000000
C       0.144700000000000      1.465800000000000     -1.035500000000000
C       0.283100000000000      2.987000000000000      0.715300000000000
C      -3.949700000000000     -1.145200000000000     -1.052400000000000
C      -5.314700000000000      0.084200000000000      0.629300000000000
C       2.335800000000000      2.262500000000000     -0.358400000000000
C      -4.223800000000000     -2.440600000000000     -0.306400000000000
C      -6.446900000000000      0.200200000000000     -0.378100000000000
C       3.292900000000000      2.281300000000000      0.834900000000000
C      -4.201400000000000     -3.625700000000000     -1.258400000000000
C      -7.792800000000000      0.253400000000000      0.327100000000000
C       3.420600000000000      0.918600000000000      1.519300000000000
C       3.615300000000000     -1.440400000000000      1.107200000000000
C       5.385600000000000      0.044300000000000      0.448100000000000
C       2.152300000000000     -1.773400000000000      0.819700000000000
C       5.836600000000000     -0.600400000000000     -0.861400000000000
C       1.799200000000000     -3.178800000000000      1.308200000000000
C       7.343800000000000     -0.441900000000000     -1.065100000000000
C       0.335500000000000     -3.504700000000000      1.057700000000000
C       7.806300000000000     -1.111800000000000     -2.349100000000000
H      -2.287500000000000      2.517700000000000     -1.933000000000000
H      -2.195500000000000      0.795600000000000     -2.227800000000000
H      -1.179400000000000     -0.764900000000000     -0.240500000000000
H      -0.712200000000000      0.038300000000000      1.243200000000000
H      -4.454900000000000      1.453600000000000     -1.695200000000000
H      -3.966600000000000      2.228400000000000     -0.193800000000000
H      -2.991100000000000      0.655200000000000      1.750100000000000
H      -2.887300000000000     -1.050800000000000      1.515800000000000
H      -1.745900000000000      3.480100000000000      0.177700000000000
H      -1.623400000000000      2.396200000000000      1.563900000000000
H       0.165300000000000      2.202700000000000     -1.849900000000000
H       0.451400000000000      0.495100000000000     -1.440300000000000
H       0.564400000000000      3.094700000000000      1.767700000000000
H       0.459900000000000      3.946300000000000      0.212500000000000
H      -2.972000000000000     -1.235300000000000     -1.541000000000000
H      -4.652600000000000     -1.012100000000000     -1.881800000000000
H      -5.350300000000000      0.961000000000000      1.291700000000000
H      -5.461900000000000     -0.769400000000000      1.299400000000000
H       2.340000000000000      3.239400000000000     -0.858300000000000
H       2.710700000000000      1.543600000000000     -1.097800000000000
H      -3.476700000000000     -2.645400000000000      0.463600000000000
H      -5.207700000000000     -2.449900000000000      0.168700000000000
H      -6.490600000000000     -0.654000000000000     -1.058200000000000
H      -6.368700000000000      1.107200000000000     -0.983200000000000
H       4.267400000000000      2.647800000000000      0.494600000000000
H       2.955400000000000      3.015800000000000      1.577100000000000
H      -3.224500000000000     -3.722900000000000     -1.743000000000000
H      -4.402100000000000     -4.554400000000000     -0.714500000000000
H      -4.963200000000000     -3.519100000000000     -2.037600000000000
H      -7.852400000000000      1.117000000000000      0.997400000000000
H      -8.602499999999999      0.337500000000000     -0.404900000000000
H      -7.963800000000000     -0.652700000000000      0.917300000000000
H       2.438500000000000      0.658600000000000      1.926700000000000
H       4.071400000000000      1.018900000000000      2.399200000000000
H       4.220000000000000     -2.208000000000000      0.612000000000000
H       3.829600000000000     -1.529600000000000      2.180700000000000
H       5.682900000000000      1.097500000000000      0.400400000000000
H       5.928800000000000     -0.384200000000000      1.301200000000000
H       1.476700000000000     -1.065400000000000      1.308200000000000
H       1.961400000000000     -1.704600000000000     -0.259000000000000
H       5.594800000000000     -1.668200000000000     -0.886000000000000
H       5.306900000000000     -0.135100000000000     -1.702800000000000
H       2.006000000000000     -3.263600000000000      2.381500000000000
H       2.425300000000000     -3.919200000000000      0.796900000000000
H       7.882400000000000     -0.882300000000000     -0.217900000000000
H       7.606000000000000      0.622000000000000     -1.099300000000000
H       0.108000000000000     -4.518000000000000      1.403000000000000
H      -0.319000000000000     -2.809500000000000      1.593100000000000
H       0.097000000000000     -3.447400000000000     -0.009200000000000
H       7.307500000000000     -0.675800000000000     -3.220600000000000
H       8.885800000000000     -0.983400000000000     -2.475900000000000
H       7.591900000000000     -2.185100000000000     -2.331500000000000
