80

O       0.590000000000000     -1.930700000000000      0.520400000000000
N       0.523600000000000      3.127500000000000     -0.235100000000000
C       1.523700000000000      2.138800000000000      0.225400000000000
C      -0.751800000000000      2.662000000000000     -0.821800000000000
C       1.396600000000000      1.884700000000000      1.750800000000000
C      -0.646400000000000      1.456600000000000     -1.797700000000000
C       1.903100000000000     -1.392700000000000      0.709300000000000
C       0.200200000000000     -2.250400000000000     -0.823300000000000
C       2.919300000000000      2.757000000000000     -0.100600000000000
C       0.929000000000000      0.496500000000000      2.229500000000000
C       1.918600000000000     -0.673900000000000      2.072200000000000
C      -0.823800000000000      0.077200000000000     -1.152700000000000
C      -1.841400000000000      2.572300000000000      0.268700000000000
C       0.087500000000000     -1.002900000000000     -1.733200000000000
C       2.947900000000000     -2.527500000000000      0.656700000000000
C       4.110100000000000      1.804700000000000      0.075600000000000
C      -1.136600000000000     -3.033700000000000     -0.778500000000000
C      -3.246000000000000      2.326200000000000     -0.300000000000000
C       4.056100000000000     -2.252100000000000     -0.371400000000000
C       4.323500000000000      0.890300000000000     -1.137000000000000
C       5.099800000000000     -1.235500000000000      0.111800000000000
C       5.429900000000000     -0.149300000000000     -0.918900000000000
C      -1.972900000000000     -2.817800000000000      0.492500000000000
C      -4.268700000000000      2.071900000000000      0.811600000000000
C      -3.435700000000000     -3.255000000000000      0.340400000000000
C      -5.562700000000000      1.406600000000000      0.320800000000000
C      -4.324600000000000     -2.249800000000000     -0.406400000000000
C      -5.397100000000000      0.054900000000000     -0.394100000000000
C      -4.551100000000000     -0.956000000000000      0.385000000000000
H       1.441800000000000      1.219400000000000     -0.340600000000000
H      -1.050100000000000      3.505100000000000     -1.461200000000000
H       0.690600000000000      2.609400000000000      2.179900000000000
H       2.343700000000000      2.107800000000000      2.258000000000000
H       0.303000000000000      1.520700000000000     -2.344700000000000
H      -1.418500000000000      1.567100000000000     -2.571100000000000
H       2.113200000000000     -0.662600000000000     -0.062300000000000
H       0.374300000000000      3.862200000000000      0.453700000000000
H       0.953100000000000     -2.912500000000000     -1.268200000000000
H       3.076700000000000      3.631000000000000      0.546500000000000
H       2.924600000000000      3.136700000000000     -1.131300000000000
H      -0.050900000000000      0.243300000000000      1.825900000000000
H       0.760000000000000      0.602400000000000      3.311000000000000
H       2.928000000000000     -0.331500000000000      2.320100000000000
H       1.646500000000000     -1.415500000000000      2.836300000000000
H      -0.649700000000000      0.148600000000000     -0.085500000000000
H      -1.863500000000000     -0.245200000000000     -1.271100000000000
H      -1.867300000000000      3.511400000000000      0.837900000000000
H      -1.593800000000000      1.789500000000000      0.992000000000000
H      -0.273800000000000     -1.294800000000000     -2.726900000000000
H       1.088200000000000     -0.588800000000000     -1.891600000000000
H       2.463000000000000     -3.473300000000000      0.386500000000000
H       3.402100000000000     -2.694800000000000      1.641000000000000
H       3.999500000000000      1.228000000000000      0.994500000000000
H       5.016400000000000      2.410800000000000      0.202300000000000
H      -0.897100000000000     -4.104900000000000     -0.824600000000000
H      -1.721200000000000     -2.831800000000000     -1.683000000000000
H      -3.219200000000000      1.476900000000000     -0.981800000000000
H      -3.562100000000000      3.190700000000000     -0.896100000000000
H       3.609500000000000     -1.955600000000000     -1.327300000000000
H       4.575600000000000     -3.199200000000000     -0.566600000000000
H       4.610400000000000      1.516200000000000     -1.991800000000000
H       3.393300000000000      0.397400000000000     -1.428300000000000
H       6.027100000000000     -1.785100000000000      0.320900000000000
H       4.812700000000000     -0.783600000000000      1.064200000000000
H       5.663200000000000     -0.626300000000000     -1.878900000000000
H       6.343200000000000      0.369300000000000     -0.601700000000000
H      -1.921900000000000     -1.777900000000000      0.823200000000000
H      -1.522700000000000     -3.413600000000000      1.297300000000000
H      -4.521500000000000      3.028700000000000      1.285400000000000
H      -3.827800000000000      1.455800000000000      1.603700000000000
H      -3.858500000000000     -3.418700000000000      1.339400000000000
H      -3.473900000000000     -4.221700000000000     -0.176200000000000
H      -6.086000000000000      2.094600000000000     -0.354400000000000
H      -6.220700000000000      1.263900000000000      1.187200000000000
H      -5.296800000000000     -2.720700000000000     -0.597000000000000
H      -3.888800000000000     -2.018900000000000     -1.384800000000000
H      -4.959200000000000      0.217100000000000     -1.385800000000000
H      -6.393800000000000     -0.368300000000000     -0.571000000000000
H      -3.583200000000000     -0.509500000000000      0.620300000000000
H      -5.041000000000000     -1.185500000000000      1.338700000000000
