81

O       1.120800000000000     -3.208800000000000     -1.532000000000000
O       3.333400000000000      4.346000000000000     -1.132600000000000
C      -0.634100000000000     -2.214700000000000     -0.202600000000000
C       1.077900000000000     -0.825600000000000     -1.869600000000000
C      -0.317000000000000     -1.459400000000000      1.115500000000000
C       0.543300000000000     -2.151300000000000     -1.232400000000000
C      -1.949500000000000     -1.684900000000000     -0.804700000000000
C       2.242800000000000     -0.215200000000000     -1.042000000000000
C       0.703600000000000     -2.156400000000000      2.031800000000000
C      -0.913100000000000     -3.712700000000000      0.106700000000000
C      -3.169200000000000     -2.160200000000000     -0.036700000000000
C       3.429000000000000     -1.136100000000000     -0.739600000000000
C       1.584300000000000     -1.173800000000000     -3.293300000000000
C       0.026400000000000      0.276800000000000     -2.064100000000000
C       1.180800000000000     -1.289000000000000      3.206100000000000
C       4.566500000000000     -0.441500000000000      0.027300000000000
C      -4.522400000000000     -1.627800000000000     -0.519700000000000
C       2.138500000000000     -0.161000000000000      2.811700000000000
C       4.185900000000000      0.256700000000000      1.341000000000000
C       3.518700000000000     -0.667900000000000      2.367300000000000
C      -4.709900000000000     -0.110100000000000     -0.433300000000000
C      -4.606800000000000      0.435400000000000      0.993400000000000
C      -4.832200000000000      1.949500000000000      1.022500000000000
C      -3.812000000000000      2.733000000000000      0.191500000000000
C      -2.365000000000000      2.513100000000000      0.638800000000000
C      -1.388100000000000      3.293500000000000     -0.243800000000000
C       0.056400000000000      3.102700000000000      0.221200000000000
C       1.033900000000000      3.854600000000000     -0.679400000000000
C       2.477300000000000      3.635000000000000     -0.249000000000000
H      -1.224200000000000     -1.313900000000000      1.711700000000000
H       0.024300000000000     -0.450800000000000      0.877200000000000
H      -1.965600000000000     -0.596500000000000     -0.784600000000000
H      -2.040200000000000     -1.989900000000000     -1.854900000000000
H       1.840700000000000      0.162900000000000     -0.103000000000000
H       2.630400000000000      0.659900000000000     -1.580400000000000
H       1.554900000000000     -2.514500000000000      1.449000000000000
H       0.231200000000000     -3.047300000000000      2.463700000000000
H       0.013500000000000     -4.244600000000000      0.357400000000000
H      -1.331000000000000     -4.236300000000000     -0.762100000000000
H      -1.568700000000000     -3.859900000000000      0.971800000000000
H      -3.275600000000000     -3.246700000000000     -0.134900000000000
H      -3.083900000000000     -1.958300000000000      1.034400000000000
H       3.095600000000000     -2.012300000000000     -0.178000000000000
H       3.852400000000000     -1.516900000000000     -1.675500000000000
H       1.997100000000000     -0.292000000000000     -3.796800000000000
H       2.364700000000000     -1.941600000000000     -3.285800000000000
H       0.765800000000000     -1.560800000000000     -3.912100000000000
H       0.458900000000000      1.153600000000000     -2.560600000000000
H      -0.801900000000000     -0.065100000000000     -2.693400000000000
H      -0.378600000000000      0.618000000000000     -1.115500000000000
H       1.678300000000000     -1.933000000000000      3.941800000000000
H       0.307700000000000     -0.856400000000000      3.709600000000000
H       5.028400000000000      0.304300000000000     -0.632200000000000
H       5.343900000000000     -1.187300000000000      0.236200000000000
H      -4.670500000000000     -1.935300000000000     -1.562600000000000
H      -5.317100000000000     -2.114500000000000      0.060000000000000
H       2.280100000000000      0.496200000000000      3.679200000000000
H       1.669100000000000      0.461200000000000      2.045900000000000
H       3.567100000000000      1.132800000000000      1.134100000000000
H       5.109700000000000      0.652000000000000      1.783300000000000
H       3.472900000000000     -1.693300000000000      1.992900000000000
H       4.158600000000000     -0.722100000000000      3.258000000000000
H      -3.975600000000000      0.363400000000000     -1.091000000000000
H      -5.697500000000000      0.138400000000000     -0.841700000000000
H      -3.643400000000000      0.187000000000000      1.447200000000000
H      -5.372800000000000     -0.042600000000000      1.616300000000000
H      -5.840600000000000      2.178600000000000      0.657500000000000
H      -4.789800000000000      2.292000000000000      2.063500000000000
H      -4.049700000000000      3.800400000000000      0.286900000000000
H      -3.920400000000000      2.501300000000000     -0.873400000000000
H      -2.253500000000000      2.825300000000000      1.684100000000000
H      -2.100700000000000      1.452900000000000      0.587400000000000
H      -1.489200000000000      2.961700000000000     -1.284100000000000
H      -1.641800000000000      4.360300000000000     -0.219700000000000
H       0.153800000000000      3.481600000000000      1.246700000000000
H       0.318000000000000      2.043400000000000      0.264000000000000
H       0.915700000000000      3.533000000000000     -1.721400000000000
H       0.809900000000000      4.928700000000000     -0.670700000000000
H       2.738500000000000      2.578600000000000     -0.301400000000000
H       2.644100000000000      3.997800000000000      0.770000000000000
H       4.245700000000000      4.182000000000000     -0.838800000000000
