81

N       1.714700000000000     -0.494800000000000      0.161100000000000
N      -1.043800000000000      1.019800000000000      0.262800000000000
C      -1.738800000000000     -2.088600000000000      0.510600000000000
C      -0.330700000000000     -1.628000000000000      0.882500000000000
C      -1.682300000000000     -3.317400000000000     -0.407100000000000
C      -2.562500000000000     -2.385300000000000      1.770900000000000
C       0.364600000000000     -0.874200000000000     -0.259400000000000
C      -3.079400000000000     -3.829500000000000     -0.750100000000000
C      -3.958100000000000     -2.899100000000000      1.424300000000000
C      -3.898100000000000     -4.115000000000000      0.505100000000000
C      -0.360700000000000      0.421600000000000     -0.655600000000000
C       2.612700000000000     -1.636300000000000      0.094300000000000
C       4.046900000000000     -1.283300000000000      0.549500000000000
C      -0.216500000000000      0.920300000000000     -2.102800000000000
C       4.650700000000000     -0.053900000000000     -0.199600000000000
C      -1.764700000000000      2.243800000000000     -0.031500000000000
C       4.919300000000000     -2.542000000000000      0.449900000000000
C       6.010600000000000      0.413300000000000      0.369100000000000
C      -1.765000000000000      3.142400000000000      1.234600000000000
C       1.234700000000000      1.255800000000000     -2.435800000000000
C      -0.795600000000000     -0.095900000000000     -3.082500000000000
C       4.801200000000000     -0.277100000000000     -1.711200000000000
C      -3.143600000000000      1.862900000000000     -0.540500000000000
C      -0.348700000000000      3.484800000000000      1.751700000000000
C       5.968400000000000      0.798200000000000      1.840900000000000
C      -2.576600000000000      4.426200000000000      0.998000000000000
C       0.536200000000000      4.244300000000000      0.772100000000000
C      -4.067800000000000      1.126500000000000      0.390900000000000
C      -3.527100000000000      2.160500000000000     -1.792800000000000
H      -2.261300000000000     -1.300300000000000     -0.040500000000000
H      -0.387400000000000     -0.975500000000000      1.765100000000000
H       0.245200000000000     -2.503400000000000      1.202100000000000
H      -1.161200000000000     -3.080200000000000     -1.340800000000000
H      -1.115500000000000     -4.122700000000000      0.077700000000000
H      -2.045500000000000     -3.133700000000000      2.385200000000000
H      -2.654300000000000     -1.481100000000000      2.384200000000000
H       0.419600000000000     -1.511200000000000     -1.145600000000000
H      -3.000000000000000     -4.741000000000000     -1.353200000000000
H      -3.600000000000000     -3.084300000000000     -1.364300000000000
H      -4.531700000000000     -2.101700000000000      0.936400000000000
H      -4.493400000000000     -3.159200000000000      2.344400000000000
H      -4.913600000000000     -4.414700000000000      0.223000000000000
H      -3.453900000000000     -4.959600000000000      1.046000000000000
H       1.700800000000000     -0.109000000000000      1.104500000000000
H       2.643600000000000     -2.030200000000000     -0.928800000000000
H       2.262600000000000     -2.453200000000000      0.734000000000000
H       3.975400000000000     -1.024800000000000      1.614100000000000
H      -0.772000000000000      1.836300000000000     -2.274500000000000
H       3.959300000000000      0.789700000000000     -0.071700000000000
H      -1.258000000000000      2.856200000000000     -0.781300000000000
H       5.011400000000000     -2.891000000000000     -0.583300000000000
H       5.924000000000000     -2.366400000000000      0.844800000000000
H       4.483000000000000     -3.358600000000000      1.036100000000000
H       6.341600000000000      1.293800000000000     -0.196900000000000
H       6.779600000000000     -0.352300000000000      0.216000000000000
H      -2.257800000000000      2.594300000000000      2.050100000000000
H       1.842900000000000      0.352000000000000     -2.520900000000000
H       1.680200000000000      1.899600000000000     -1.670800000000000
H       1.295900000000000      1.779600000000000     -3.396000000000000
H      -0.167100000000000     -0.987000000000000     -3.176200000000000
H      -1.793000000000000     -0.421900000000000     -2.769000000000000
H      -0.882700000000000      0.344300000000000     -4.081900000000000
H       5.568600000000000     -1.026400000000000     -1.930900000000000
H       3.868700000000000     -0.605300000000000     -2.173900000000000
H       5.099800000000000      0.653600000000000     -2.206400000000000
H      -0.441000000000000      4.080200000000000      2.668900000000000
H       0.166400000000000      2.561800000000000      2.044300000000000
H       6.918700000000000      1.255800000000000      2.134900000000000
H       5.815100000000000     -0.075000000000000      2.481400000000000
H       5.170200000000000      1.520800000000000      2.036900000000000
H      -2.223200000000000      4.972500000000000      0.117600000000000
H      -2.506800000000000      5.094300000000000      1.863200000000000
H      -3.638300000000000      4.205100000000000      0.849700000000000
H       0.741300000000000      3.657600000000000     -0.126900000000000
H       1.499700000000000      4.468100000000000      1.242100000000000
H       0.086600000000000      5.195400000000000      0.473900000000000
H      -3.555700000000000      0.304700000000000      0.892800000000000
H      -4.450800000000000      1.804400000000000      1.160100000000000
H      -4.928600000000000      0.702300000000000     -0.137000000000000
H      -2.882600000000000      2.699900000000000     -2.477600000000000
H      -4.509800000000000      1.883500000000000     -2.160300000000000
