81

N       0.259700000000000      2.655000000000000     -0.471000000000000
N      -0.523300000000000      2.363400000000000      1.586600000000000
C       4.289300000000000     -1.064400000000000      0.739200000000000
C      -3.511100000000000     -0.804500000000000     -1.389400000000000
C       3.262900000000000      1.006700000000000     -0.568200000000000
C       3.272900000000000      0.119000000000000      0.707900000000000
C      -3.103000000000000      1.470900000000000     -0.082500000000000
C      -2.505600000000000      0.264700000000000     -0.860000000000000
C       2.778300000000000      2.454900000000000     -0.226100000000000
C      -2.203300000000000      2.768000000000000     -0.213500000000000
C       3.999500000000000     -2.156100000000000     -0.332800000000000
C      -4.252800000000000     -1.570400000000000     -0.254500000000000
C       1.354900000000000      2.454700000000000      0.321300000000000
C      -0.844600000000000      2.591500000000000      0.332600000000000
C       4.229400000000000     -1.694700000000000      2.149200000000000
C       5.730000000000000     -0.562400000000000      0.522400000000000
C      -2.714500000000000     -1.806900000000000     -2.255500000000000
C      -4.576700000000000     -0.160500000000000     -2.297300000000000
C       2.420200000000000      0.355600000000000     -1.677100000000000
C      -3.359700000000000      1.097700000000000      1.386700000000000
C       2.586900000000000     -2.752300000000000     -0.319100000000000
C      -3.360800000000000     -2.245900000000000      0.793900000000000
C       3.011700000000000      3.468600000000000     -1.356600000000000
C      -2.962000000000000      4.040800000000000      0.265800000000000
C       0.846500000000000      2.277100000000000      1.586300000000000
C       2.408800000000000     -3.768300000000000     -1.449900000000000
C      -4.203400000000000     -2.915000000000000      1.882700000000000
C       0.998200000000000     -4.335100000000000     -1.471700000000000
C      -3.328500000000000     -3.552200000000000      2.950400000000000
H       4.283300000000000      1.113600000000000     -0.949900000000000
H       2.262600000000000     -0.250700000000000      0.920500000000000
H       3.530900000000000      0.762800000000000      1.561000000000000
H      -4.068900000000000      1.740100000000000     -0.522000000000000
H      -1.716300000000000     -0.212100000000000     -0.265700000000000
H      -1.988700000000000      0.667800000000000     -1.742900000000000
H       3.412900000000000      2.809300000000000      0.600600000000000
H      -2.098800000000000      2.925700000000000     -1.298600000000000
H       4.245700000000000     -1.778800000000000     -1.329900000000000
H       4.707800000000000     -2.983000000000000     -0.176500000000000
H      -4.868300000000000     -2.354900000000000     -0.718900000000000
H      -4.979900000000000     -0.912000000000000      0.230300000000000
H       4.550300000000000     -0.979000000000000      2.915100000000000
H       4.883300000000000     -2.571000000000000      2.222300000000000
H       3.213500000000000     -2.012300000000000      2.406600000000000
H       6.457100000000000     -1.359300000000000      0.719000000000000
H       5.964600000000000      0.270500000000000      1.194700000000000
H       5.901100000000000     -0.225900000000000     -0.504800000000000
H      -2.280400000000000     -1.312700000000000     -3.132400000000000
H      -3.355000000000000     -2.618900000000000     -2.617300000000000
H      -1.889400000000000     -2.255700000000000     -1.693600000000000
H      -5.170000000000000     -0.926600000000000     -2.810500000000000
H      -4.114100000000000      0.467700000000000     -3.066700000000000
H      -5.281700000000000      0.458800000000000     -1.734300000000000
H       1.427100000000000      0.065700000000000     -1.320600000000000
H       2.899300000000000     -0.517400000000000     -2.115200000000000
H       2.272900000000000      1.047500000000000     -2.512300000000000
H      -2.488900000000000      0.624500000000000      1.849100000000000
H      -4.215600000000000      0.436400000000000      1.508000000000000
H      -3.599200000000000      1.983900000000000      1.982300000000000
H       2.407200000000000     -3.255500000000000      0.637700000000000
H       1.822900000000000     -1.978500000000000     -0.414800000000000
H      -2.737900000000000     -3.008700000000000      0.312800000000000
H      -2.678500000000000     -1.533500000000000      1.260700000000000
H       0.261800000000000      2.812700000000000     -1.469900000000000
H       2.407600000000000      3.253700000000000     -2.242900000000000
H       2.753800000000000      4.480500000000000     -1.024100000000000
H       4.064300000000000      3.473000000000000     -1.658400000000000
H      -3.953900000000000      4.102900000000000     -0.192600000000000
H      -2.399700000000000      4.938900000000000     -0.013300000000000
H      -3.074500000000000      4.055300000000000      1.354000000000000
H       1.394400000000000      2.092600000000000      2.499000000000000
H       2.616200000000000     -3.291800000000000     -2.415100000000000
H       3.126400000000000     -4.588200000000000     -1.330700000000000
H      -4.858600000000000     -2.173700000000000      2.354800000000000
H      -4.847300000000000     -3.682000000000000      1.437200000000000
H       0.763800000000000     -4.841300000000000     -0.529800000000000
H       0.260600000000000     -3.542200000000000     -1.628700000000000
H       0.893800000000000     -5.061500000000000     -2.283600000000000
H      -2.677900000000000     -4.319100000000000      2.518000000000000
H      -2.698300000000000     -2.802900000000000      3.440100000000000
H      -3.950000000000000     -4.026200000000000      3.716500000000000
