81

N       3.086400000000000      0.674300000000000      0.207500000000000
N      -3.031700000000000     -0.967500000000000     -0.839100000000000
C       4.923100000000000     -0.836700000000000     -0.088800000000000
C       4.474300000000000      0.622900000000000     -0.264300000000000
C       2.954900000000000     -0.407800000000000      1.196600000000000
C       3.724200000000000     -1.545500000000000      0.523800000000000
C       1.509300000000000     -0.798300000000000      1.475300000000000
C       5.349000000000000     -1.329300000000000     -1.469200000000000
C       4.613100000000000      0.918400000000000     -1.757600000000000
C       5.694500000000000     -0.048800000000000     -2.218600000000000
C       2.738500000000000      1.987300000000000      0.736400000000000
C       0.657700000000000     -0.413100000000000      0.232600000000000
C      -0.831900000000000     -0.795100000000000      0.302500000000000
C       1.037500000000000     -0.046000000000000      2.730700000000000
C       1.457500000000000     -2.311700000000000      1.741900000000000
C      -1.669100000000000     -0.464200000000000     -0.962800000000000
C      -3.591200000000000     -0.807400000000000      0.510200000000000
C       3.627800000000000      2.303900000000000      1.934700000000000
C       2.882800000000000      3.050100000000000     -0.349200000000000
C      -3.099000000000000     -2.406200000000000     -1.107300000000000
C      -4.794100000000000     -1.752800000000000      0.489200000000000
C      -4.003100000000000      0.624400000000000      0.828500000000000
C      -4.464500000000000     -2.800000000000000     -0.569000000000000
C      -1.031800000000000     -1.163200000000000     -2.175500000000000
C      -1.730700000000000      1.045500000000000     -1.231700000000000
C      -4.961000000000000      1.153700000000000     -0.258400000000000
C      -4.622500000000000      0.691300000000000      2.228000000000000
C      -4.998000000000000      2.680600000000000     -0.356500000000000
C      -5.901900000000000      3.141400000000000     -1.490200000000000
H       5.769600000000000     -0.876100000000000      0.609400000000000
H       5.197000000000000      1.235400000000000      0.279200000000000
H       3.500400000000000     -0.220100000000000      2.128400000000000
H       3.146400000000000     -2.028200000000000     -0.272600000000000
H       4.062900000000000     -2.316400000000000      1.224100000000000
H       4.534300000000000     -1.850600000000000     -1.985000000000000
H       6.200700000000000     -2.014100000000000     -1.415200000000000
H       4.895500000000000      1.952300000000000     -1.971200000000000
H       3.680800000000000      0.705800000000000     -2.296600000000000
H       6.685000000000000      0.313700000000000     -1.919100000000000
H       5.691700000000000     -0.189700000000000     -3.303100000000000
H       0.664800000000000      0.657600000000000      0.030500000000000
H       1.093700000000000     -0.906400000000000     -0.643800000000000
H       1.698300000000000      2.045700000000000      1.054100000000000
H      -1.221500000000000     -0.243400000000000      1.164500000000000
H      -0.896800000000000     -1.863000000000000      0.532800000000000
H       0.068400000000000     -0.429800000000000      3.071000000000000
H       0.903600000000000      1.025700000000000      2.584100000000000
H       1.733500000000000     -0.187700000000000      3.565800000000000
H       0.484400000000000     -2.592500000000000      2.163800000000000
H       1.573800000000000     -2.920700000000000      0.840100000000000
H       2.199100000000000     -2.621300000000000      2.487600000000000
H      -2.952700000000000     -1.205800000000000      1.306500000000000
H       4.697200000000000      2.384100000000000      1.732400000000000
H       3.346600000000000      3.299300000000000      2.306700000000000
H       3.477800000000000      1.645900000000000      2.793400000000000
H       2.401900000000000      3.978700000000000     -0.017700000000000
H       2.384900000000000      2.752600000000000     -1.278500000000000
H       3.924700000000000      3.308300000000000     -0.558500000000000
H      -2.343100000000000     -2.993400000000000     -0.572800000000000
H      -3.059300000000000     -2.657800000000000     -2.172400000000000
H      -5.746600000000000     -1.282900000000000      0.230300000000000
H      -4.931700000000000     -2.230900000000000      1.466500000000000
H      -3.127700000000000      1.265600000000000      0.899100000000000
H      -4.459100000000000     -3.812100000000000     -0.151700000000000
H      -5.217900000000000     -2.769100000000000     -1.365200000000000
H      -0.102000000000000     -0.662100000000000     -2.472800000000000
H      -0.759400000000000     -2.209300000000000     -1.995000000000000
H      -1.674900000000000     -1.109100000000000     -3.063600000000000
H      -2.563500000000000      1.320100000000000     -1.887300000000000
H      -0.827100000000000      1.370600000000000     -1.764600000000000
H      -1.747600000000000      1.664100000000000     -0.335000000000000
H      -5.983800000000000      0.811900000000000     -0.056300000000000
H      -4.708000000000000      0.771200000000000     -1.252100000000000
H      -5.571100000000000      0.148200000000000      2.287800000000000
H      -3.942100000000000      0.272900000000000      2.977600000000000
H      -4.822700000000000      1.730000000000000      2.511200000000000
H      -3.988200000000000      3.070800000000000     -0.525500000000000
H      -5.357600000000000      3.108900000000000      0.585500000000000
H      -5.919700000000000      4.234600000000000     -1.539400000000000
H      -5.546100000000000      2.764500000000000     -2.454500000000000
H      -6.928300000000000      2.791300000000000     -1.340900000000000
