81

N       1.058600000000000     -0.364700000000000     -0.132400000000000
N       1.724900000000000      0.485400000000000     -1.081900000000000
C       0.824100000000000     -1.737300000000000     -0.629000000000000
C       1.783500000000000      1.885400000000000     -0.586300000000000
C       2.089200000000000     -2.559400000000000     -0.456100000000000
C       2.940800000000000      2.006200000000000      0.426000000000000
C       1.901700000000000     -4.032300000000000     -0.805400000000000
C       2.569900000000000     -2.626700000000000      0.990100000000000
C       3.221600000000000      3.444400000000000      0.849800000000000
C       4.286100000000000      1.566200000000000     -0.143000000000000
C      -0.295500000000000     -2.355500000000000      0.271600000000000
C       0.471200000000000      2.407200000000000      0.077300000000000
C       3.096400000000000     -4.719900000000000     -0.152700000000000
C       3.518900000000000     -3.821000000000000      1.010600000000000
C       4.620400000000000      3.383000000000000      1.454500000000000
C       5.309700000000000      2.181100000000000      0.806500000000000
C       0.379700000000000     -1.818900000000000     -2.106700000000000
C       2.128400000000000      2.769400000000000     -1.803100000000000
C      -1.599700000000000     -1.540600000000000      0.293900000000000
C      -0.806100000000000      2.275500000000000     -0.769100000000000
C      -2.724000000000000     -2.220600000000000      1.083900000000000
C      -2.061500000000000      2.417200000000000      0.102900000000000
C      -5.428300000000000      0.478500000000000      0.112000000000000
C      -3.900100000000000     -1.264800000000000      1.343200000000000
C      -3.300300000000000      1.837700000000000     -0.589900000000000
C      -4.693500000000000     -0.897500000000000      0.077300000000000
C      -4.476200000000000      1.681700000000000      0.388800000000000
C      -6.131100000000000      0.684300000000000     -1.245400000000000
C      -6.508800000000000      0.455800000000000      1.212200000000000
H       2.901100000000000     -2.152800000000000     -1.077000000000000
H       2.725000000000000      1.409200000000000      1.324100000000000
H       1.001700000000000     -4.487400000000000     -0.388200000000000
H       1.892300000000000     -4.209900000000000     -1.885600000000000
H       1.800600000000000     -2.824200000000000      1.736100000000000
H       3.088200000000000     -1.711400000000000      1.296000000000000
H       3.256500000000000      4.159400000000000      0.025700000000000
H       2.497800000000000      3.815800000000000      1.582100000000000
H       4.387500000000000      0.476200000000000     -0.174700000000000
H       4.505800000000000      1.941500000000000     -1.143500000000000
H      -0.000600000000000     -2.450800000000000      1.317600000000000
H      -0.574500000000000     -3.354300000000000     -0.077500000000000
H       0.578700000000000      3.472100000000000      0.322400000000000
H       0.331500000000000      1.907400000000000      1.045100000000000
H       0.168700000000000      0.057700000000000      0.091600000000000
H       1.195500000000000      0.485800000000000     -1.952700000000000
H       2.843400000000000     -5.730200000000000      0.184900000000000
H       3.921700000000000     -4.811200000000000     -0.868400000000000
H       3.475700000000000     -4.350300000000000      1.968100000000000
H       4.554000000000000     -3.489800000000000      0.866900000000000
H       5.173800000000000      4.311700000000000      1.281500000000000
H       4.560900000000000      3.234900000000000      2.539100000000000
H       5.598300000000000      1.458200000000000      1.578300000000000
H       6.221600000000000      2.474000000000000      0.276000000000000
H       1.209500000000000     -1.616300000000000     -2.794000000000000
H      -0.413400000000000     -1.097400000000000     -2.332200000000000
H      -0.016400000000000     -2.809400000000000     -2.357600000000000
H       3.058900000000000      2.514000000000000     -2.313200000000000
H       2.127500000000000      3.839700000000000     -1.580900000000000
H       1.353100000000000      2.650900000000000     -2.573200000000000
H      -1.937400000000000     -1.355000000000000     -0.728500000000000
H      -1.434000000000000     -0.571300000000000      0.771000000000000
H      -0.834200000000000      1.312800000000000     -1.286600000000000
H      -0.819500000000000      3.044500000000000     -1.550400000000000
H      -2.334800000000000     -2.553900000000000      2.053700000000000
H      -3.072200000000000     -3.113400000000000      0.552000000000000
H      -2.226400000000000      3.469800000000000      0.360600000000000
H      -1.903800000000000      1.877400000000000      1.044400000000000
H      -4.585200000000000     -1.741300000000000      2.055400000000000
H      -3.508400000000000     -0.377100000000000      1.846800000000000
H      -3.595700000000000      2.485400000000000     -1.424000000000000
H      -3.031000000000000      0.875500000000000     -1.029300000000000
H      -4.050200000000000     -0.937500000000000     -0.806000000000000
H      -5.433800000000000     -1.692400000000000     -0.091100000000000
H      -4.101300000000000      1.610200000000000      1.416300000000000
H      -5.056600000000000      2.614600000000000      0.368900000000000
H      -5.415100000000000      0.680000000000000     -2.074200000000000
H      -6.667600000000000      1.639500000000000     -1.272900000000000
H      -6.860600000000000     -0.111000000000000     -1.436600000000000
H      -6.066600000000000      0.346100000000000      2.208200000000000
H      -7.091800000000000      1.383900000000000      1.211800000000000
H      -7.208200000000000     -0.374700000000000      1.063700000000000
