81

N       0.205200000000000      0.726700000000000      0.299900000000000
N      -0.238400000000000      2.047700000000000     -0.046400000000000
C      -0.939300000000000     -0.190000000000000      0.193300000000000
C       1.270200000000000      0.332900000000000     -0.627500000000000
C      -0.683100000000000     -1.442400000000000      1.062800000000000
C      -1.144300000000000     -0.523700000000000     -1.300200000000000
C       1.632600000000000     -1.146200000000000     -0.383400000000000
C       2.473000000000000      1.296400000000000     -0.515300000000000
C      -1.160200000000000      1.961400000000000     -1.187100000000000
C      -0.892800000000000      2.636300000000000      1.128600000000000
C      -1.573800000000000     -1.555300000000000      2.313500000000000
C      -2.430800000000000     -1.307100000000000     -1.600700000000000
C       2.550700000000000     -1.749000000000000     -1.462000000000000
C       3.124600000000000      1.397600000000000      0.876700000000000
C      -1.667300000000000      3.351600000000000     -1.576500000000000
C      -1.391500000000000      4.049100000000000      0.817400000000000
C      -2.321400000000000      4.055600000000000     -0.391800000000000
C      -2.960000000000000     -2.158500000000000      2.038700000000000
C      -3.692300000000000     -0.442900000000000     -1.512300000000000
C       3.520600000000000     -2.801100000000000     -0.901800000000000
C       4.641900000000000      1.634500000000000      0.808600000000000
C      -4.046800000000000     -1.108600000000000      1.800000000000000
C      -4.997000000000000     -1.240400000000000     -1.440400000000000
C       5.008700000000000     -2.458100000000000     -1.082900000000000
C       5.490700000000000      0.521200000000000      1.445200000000000
C      -5.312200000000000     -1.647100000000000      1.126000000000000
C      -5.167000000000000     -2.237400000000000     -0.284300000000000
C       5.468300000000000     -1.095900000000000     -0.547700000000000
C       5.231800000000000     -0.907300000000000      0.949600000000000
H      -1.842800000000000      0.255800000000000      0.599900000000000
H       0.993800000000000      0.419300000000000     -1.684800000000000
H      -0.781200000000000     -2.382600000000000      0.509100000000000
H       0.306400000000000     -1.410800000000000      1.528700000000000
H      -1.061600000000000      0.115700000000000     -2.165000000000000
H      -0.415000000000000     -1.280000000000000     -1.602200000000000
H       2.132300000000000     -1.226800000000000      0.585500000000000
H       0.861200000000000     -1.897900000000000     -0.390400000000000
H       3.220700000000000      0.992600000000000     -1.252800000000000
H       2.188000000000000      2.307900000000000     -0.835000000000000
H      -2.106100000000000      1.464500000000000     -1.018500000000000
H      -0.598000000000000      1.747600000000000     -2.099600000000000
H      -0.170800000000000      2.706200000000000      1.952600000000000
H      -1.742300000000000      2.053800000000000      1.503500000000000
H      -1.065500000000000     -2.237600000000000      3.008700000000000
H      -1.651700000000000     -0.592800000000000      2.832600000000000
H      -2.371600000000000     -1.726800000000000     -2.614100000000000
H      -2.494400000000000     -2.168400000000000     -0.934400000000000
H       1.916400000000000     -2.229800000000000     -2.219900000000000
H       3.095000000000000     -0.980800000000000     -2.015400000000000
H       2.667300000000000      2.253200000000000      1.391600000000000
H       2.893700000000000      0.536600000000000      1.507700000000000
H      -2.382300000000000      3.275900000000000     -2.404600000000000
H      -0.830500000000000      3.965500000000000     -1.936500000000000
H      -0.534200000000000      4.705900000000000      0.621500000000000
H      -1.914200000000000      4.459100000000000      1.689000000000000
H      -2.579100000000000      5.085500000000000     -0.662000000000000
H      -3.258300000000000      3.545900000000000     -0.134900000000000
H      -2.891400000000000     -2.875600000000000      1.217600000000000
H      -3.260500000000000     -2.744600000000000      2.917300000000000
H      -3.675400000000000      0.234900000000000     -0.662300000000000
H      -3.731900000000000      0.201700000000000     -2.400100000000000
H       3.317500000000000     -3.014600000000000      0.153500000000000
H       3.339000000000000     -3.748000000000000     -1.427200000000000
H       4.975600000000000      1.810200000000000     -0.220000000000000
H       4.868100000000000      2.563300000000000      1.348800000000000
H      -4.337300000000000     -0.703900000000000      2.779300000000000
H      -3.673900000000000     -0.249600000000000      1.254300000000000
H      -5.834400000000000     -0.531500000000000     -1.418000000000000
H      -5.101700000000000     -1.799300000000000     -2.379500000000000
H       5.605000000000000     -3.247200000000000     -0.608000000000000
H       5.245600000000000     -2.498900000000000     -2.153700000000000
H       6.549700000000000      0.764900000000000      1.294500000000000
H       5.325000000000000      0.537900000000000      2.530100000000000
H      -6.061700000000000     -0.846300000000000      1.098600000000000
H      -5.728900000000000     -2.428900000000000      1.774500000000000
H      -4.390100000000000     -3.005200000000000     -0.315000000000000
H      -6.101000000000000     -2.780000000000000     -0.487400000000000
H       4.988200000000000     -0.304400000000000     -1.124500000000000
H       6.542800000000000     -0.992700000000000     -0.746300000000000
H       4.220400000000000     -1.204400000000000      1.229600000000000
H       5.898700000000000     -1.587100000000000      1.495300000000000
