81

N       0.497800000000000     -0.108300000000000     -1.912100000000000
N      -0.955700000000000      0.168700000000000     -0.256000000000000
C       1.896400000000000     -2.028200000000000     -1.172400000000000
C      -0.256400000000000     -1.660100000000000      1.343800000000000
C       0.800000000000000     -1.065600000000000     -0.985000000000000
C      -0.110500000000000     -0.874700000000000      0.027600000000000
C      -1.144100000000000      1.727000000000000     -2.195400000000000
C      -0.562500000000000      0.608200000000000     -1.430900000000000
C       3.028800000000000     -1.926200000000000     -0.063900000000000
C      -1.733300000000000     -1.647700000000000      1.851300000000000
C      -1.808200000000000      2.840400000000000     -1.281200000000000
C       2.624000000000000     -1.781300000000000     -2.544300000000000
C       1.482300000000000     -3.548300000000000     -1.234600000000000
C       0.625700000000000     -0.976700000000000      2.419100000000000
C       0.228000000000000     -3.127300000000000      1.253700000000000
C       3.763200000000000     -0.577300000000000     -0.042300000000000
C      -2.765100000000000     -2.226000000000000      0.871400000000000
C      -0.161700000000000      2.484100000000000     -3.166600000000000
C      -2.289200000000000      1.213200000000000     -3.140800000000000
C      -0.851800000000000      3.456700000000000     -0.249100000000000
C       4.907300000000000     -0.590500000000000      0.975700000000000
C      -4.183000000000000     -2.120600000000000      1.440400000000000
C      -1.587600000000000      4.444200000000000      0.661300000000000
C       5.615400000000000      0.762900000000000      1.033500000000000
C      -5.210600000000000     -2.733300000000000      0.489100000000000
C      -0.633300000000000      5.093600000000000      1.663100000000000
C       6.773000000000000      0.744200000000000      2.019000000000000
C      -6.623400000000000     -2.601000000000000      1.035000000000000
C      -1.365600000000000      6.049800000000000      2.590800000000000
H       2.682400000000000     -2.124200000000000      0.941400000000000
H       3.774600000000000     -2.708500000000000     -0.267600000000000
H      -1.799600000000000     -2.192500000000000      2.802700000000000
H      -2.024200000000000     -0.612900000000000      2.080400000000000
H       0.951800000000000      0.044000000000000     -2.801800000000000
H      -2.653100000000000      2.389100000000000     -0.742600000000000
H      -2.231000000000000      3.637300000000000     -1.907100000000000
H       1.957700000000000     -2.015500000000000     -3.384800000000000
H       2.954200000000000     -0.746100000000000     -2.679300000000000
H       3.510900000000000     -2.418900000000000     -2.646200000000000
H       0.421800000000000     -3.666600000000000     -1.478600000000000
H       1.770600000000000     -4.143300000000000     -0.367700000000000
H       2.011300000000000     -4.052800000000000     -2.055500000000000
H       0.625600000000000     -1.548200000000000      3.354400000000000
H       0.238800000000000      0.023900000000000      2.650400000000000
H       1.661200000000000     -0.831500000000000      2.112300000000000
H      -0.128800000000000     -3.653900000000000      2.152900000000000
H      -0.255000000000000     -3.668900000000000      0.442000000000000
H       1.294100000000000     -3.282600000000000      1.324900000000000
H       4.194200000000000     -0.345600000000000     -1.020300000000000
H       3.061000000000000      0.226700000000000      0.205700000000000
H      -2.537500000000000     -3.279800000000000      0.675100000000000
H      -2.730800000000000     -1.705700000000000     -0.090900000000000
H      -0.643200000000000      3.351400000000000     -3.632000000000000
H       0.727500000000000      2.832000000000000     -2.630000000000000
H       0.182900000000000      1.825800000000000     -3.972600000000000
H      -2.745300000000000      2.033900000000000     -3.705700000000000
H      -3.078800000000000      0.722000000000000     -2.560000000000000
H      -1.904700000000000      0.478000000000000     -3.857500000000000
H      -0.393300000000000      2.679600000000000      0.371000000000000
H      -0.038800000000000      3.980600000000000     -0.763800000000000
H       4.514300000000000     -0.839200000000000      1.969100000000000
H       5.628000000000000     -1.372700000000000      0.707700000000000
H      -4.230900000000000     -2.632000000000000      2.409500000000000
H      -4.428300000000000     -1.066400000000000      1.618000000000000
H      -2.064500000000000      5.222000000000000      0.052600000000000
H      -2.386300000000000      3.919700000000000      1.200100000000000
H       4.903700000000000      1.543100000000000      1.327600000000000
H       5.995200000000000      1.027800000000000      0.039900000000000
H      -5.156000000000000     -2.238000000000000     -0.487400000000000
H      -4.983700000000000     -3.793600000000000      0.328300000000000
H       0.152400000000000      5.640200000000000      1.128600000000000
H      -0.139800000000000      4.320000000000000      2.262900000000000
H       7.519700000000000     -0.003600000000000      1.733100000000000
H       6.423500000000000      0.512200000000000      3.030100000000000
H       7.264200000000000      1.721900000000000      2.045300000000000
H      -6.893200000000000     -1.549400000000000      1.174800000000000
H      -6.721100000000000     -3.112100000000000      1.998100000000000
H      -7.341700000000000     -3.046400000000000      0.339600000000000
H      -0.664200000000000      6.503600000000000      3.298000000000000
H      -1.846000000000000      6.854500000000000      2.025000000000000
H      -2.136200000000000      5.526000000000000      3.165500000000000
