81

N       3.929100000000000      0.711500000000000     -0.729500000000000
N      -3.448400000000000     -0.904900000000000      1.179700000000000
C       1.620100000000000     -0.248200000000000     -0.386000000000000
C      -1.114800000000000      0.005200000000000      0.749400000000000
C       1.145600000000000      1.049100000000000      0.280700000000000
C       0.874800000000000     -1.459800000000000      0.188200000000000
C      -0.369100000000000      1.216500000000000      0.175300000000000
C      -0.640000000000000     -1.292500000000000      0.083200000000000
C       3.135400000000000     -0.417800000000000     -0.223600000000000
C      -2.633100000000000      0.175400000000000      0.585300000000000
C       3.602200000000000     -1.761000000000000     -0.840000000000000
C      -3.073300000000000      1.557500000000000      1.137700000000000
C       5.126400000000000     -1.955300000000000     -0.934600000000000
C      -4.573900000000000      1.866900000000000      0.993200000000000
C       4.001400000000000      1.845500000000000      0.193500000000000
C      -3.715200000000000     -2.019200000000000      0.256600000000000
C       5.884400000000000     -1.795000000000000      0.391000000000000
C       3.632400000000000      1.126900000000000     -2.095800000000000
C      -2.966600000000000     -1.386500000000000      2.471200000000000
C      -5.036200000000000      1.976200000000000     -0.464100000000000
C       5.441900000000000      2.369300000000000      0.332600000000000
C      -4.798700000000000     -1.680400000000000     -0.785900000000000
C       7.210900000000000     -1.032900000000000      0.251900000000000
C       6.419600000000000      1.331100000000000      0.910000000000000
C      -6.543200000000000      1.736200000000000     -0.646600000000000
C       7.074900000000000      0.441300000000000     -0.157300000000000
C      -6.149200000000000     -1.349100000000000     -0.139800000000000
C      -6.859800000000000      0.639800000000000     -1.679100000000000
C      -7.177700000000000     -0.745800000000000     -1.097100000000000
H       1.368800000000000     -0.195900000000000     -1.454400000000000
H      -0.856200000000000     -0.038900000000000      1.816000000000000
H       1.434700000000000      1.070800000000000      1.338200000000000
H       1.548200000000000      1.931500000000000     -0.212300000000000
H       1.128900000000000     -2.376800000000000     -0.353100000000000
H       1.152600000000000     -1.612500000000000      1.238900000000000
H      -0.601600000000000      2.132600000000000      0.726200000000000
H      -0.649700000000000      1.376300000000000     -0.873400000000000
H      -0.928500000000000     -1.306100000000000     -0.975300000000000
H      -1.054800000000000     -2.179700000000000      0.562400000000000
H       3.334400000000000     -0.514200000000000      0.852200000000000
H      -2.820200000000000      0.207900000000000     -0.493100000000000
H       3.180800000000000     -1.884400000000000     -1.845700000000000
H       3.226600000000000     -2.592700000000000     -0.232300000000000
H      -2.568200000000000      2.370600000000000      0.608400000000000
H      -2.799600000000000      1.642800000000000      2.196600000000000
H       5.316100000000000     -2.966200000000000     -1.319000000000000
H       5.520300000000000     -1.285100000000000     -1.705000000000000
H      -4.784700000000000      2.820200000000000      1.494800000000000
H      -5.150300000000000      1.115000000000000      1.539300000000000
H       3.388700000000000      2.691800000000000     -0.136200000000000
H       3.668900000000000      1.580500000000000      1.204200000000000
H      -4.092500000000000     -2.880400000000000      0.824900000000000
H      -2.841300000000000     -2.383900000000000     -0.280400000000000
H       6.109000000000000     -2.798500000000000      0.775100000000000
H       5.273300000000000     -1.324500000000000      1.163700000000000
H       4.394200000000000      1.829700000000000     -2.451700000000000
H       2.659300000000000      1.617100000000000     -2.197600000000000
H       3.660500000000000      0.276700000000000     -2.785000000000000
H      -2.783900000000000     -0.555400000000000      3.160900000000000
H      -2.062900000000000     -1.998400000000000      2.415900000000000
H      -3.741700000000000     -1.998700000000000      2.947700000000000
H      -4.795300000000000      2.987100000000000     -0.818900000000000
H      -4.469100000000000      1.309000000000000     -1.112900000000000
H       5.411600000000000      3.223800000000000      1.021100000000000
H       5.812400000000000      2.758300000000000     -0.623300000000000
H      -4.932900000000000     -2.549700000000000     -1.442500000000000
H      -4.459500000000000     -0.870500000000000     -1.435200000000000
H       7.836100000000000     -1.545900000000000     -0.489400000000000
H       7.750700000000000     -1.088600000000000      1.205300000000000
H       5.919000000000000      0.743200000000000      1.686300000000000
H       7.224200000000000      1.873700000000000      1.423400000000000
H      -6.976700000000000      2.674100000000000     -1.018300000000000
H      -7.048300000000000      1.529700000000000      0.303500000000000
H       8.084899999999999      0.830300000000000     -0.343100000000000
H       6.561300000000000      0.521200000000000     -1.118800000000000
H      -6.030000000000000     -0.684400000000000      0.717300000000000
H      -6.566800000000000     -2.278800000000000      0.268500000000000
H      -7.752000000000000      0.955900000000000     -2.236100000000000
H      -6.063400000000000      0.561800000000000     -2.427800000000000
H      -8.132899999999999     -0.676000000000000     -0.560600000000000
H      -7.347200000000000     -1.442000000000000     -1.927900000000000
