81

N       1.724300000000000      1.807000000000000      0.744600000000000
N      -1.942200000000000      1.722100000000000      1.404300000000000
C       2.783600000000000     -0.083800000000000     -0.479700000000000
C       4.179200000000000      1.417400000000000      0.990200000000000
C       5.211900000000000     -0.637300000000000     -0.055800000000000
C       4.606000000000000      1.338400000000000     -1.498300000000000
C       2.773900000000000      0.799300000000000      0.791700000000000
C       3.805600000000000     -1.220900000000000     -0.278600000000000
C       3.204200000000000      0.741700000000000     -1.713300000000000
C       5.194600000000000      0.273300000000000      1.184600000000000
C       4.594100000000000      2.237000000000000     -0.249200000000000
C       5.612900000000000      0.194600000000000     -1.285800000000000
C       0.432300000000000      1.228400000000000      1.097200000000000
C      -0.650500000000000      2.303000000000000      1.069900000000000
C      -2.995600000000000      2.731800000000000      1.346700000000000
C      -4.345900000000000      2.099200000000000      1.690900000000000
C      -4.800000000000000      0.957300000000000      0.752300000000000
C      -4.845900000000000      1.416700000000000     -0.719300000000000
C      -5.111800000000000      0.315100000000000     -1.756000000000000
C      -4.091000000000000     -0.826900000000000     -1.706300000000000
C      -6.128000000000000      0.348700000000000      1.209000000000000
C      -2.623300000000000     -0.403800000000000     -1.929000000000000
C      -1.593400000000000     -1.529600000000000     -1.705100000000000
C      -1.625300000000000     -2.211400000000000     -0.331000000000000
C      -2.423200000000000      0.206700000000000     -3.321300000000000
C      -0.540100000000000     -3.278500000000000     -0.154200000000000
C      -0.563500000000000     -3.951600000000000      1.231800000000000
C      -0.354300000000000     -2.954200000000000      2.372400000000000
C       0.511300000000000     -5.039900000000000      1.297200000000000
H       1.802200000000000     -0.534000000000000     -0.661700000000000
H       4.190900000000000      2.061000000000000      1.878200000000000
H       5.931300000000000     -1.450400000000000      0.091600000000000
H       4.896300000000000      1.927300000000000     -2.375400000000000
H       2.596200000000000      0.155300000000000      1.665400000000000
H       3.514800000000000     -1.838800000000000      0.580100000000000
H       3.809000000000000     -1.879900000000000     -1.155700000000000
H       3.204600000000000      0.102700000000000     -2.605200000000000
H       2.479700000000000      1.542600000000000     -1.902900000000000
H       6.195500000000000      0.687600000000000      1.358200000000000
H       4.935800000000000     -0.312000000000000      2.075600000000000
H       3.907100000000000      3.078300000000000     -0.399200000000000
H       5.589900000000000      2.669900000000000     -0.092200000000000
H       5.646800000000000     -0.445100000000000     -2.176200000000000
H       6.621500000000000      0.603600000000000     -1.149200000000000
H       1.938400000000000      2.556600000000000      1.402300000000000
H       0.474000000000000      0.783900000000000      2.100000000000000
H       0.157600000000000      0.437400000000000      0.391500000000000
H      -0.399400000000000      3.099900000000000      1.781300000000000
H      -0.690000000000000      2.747700000000000      0.067400000000000
H      -1.908400000000000      1.308300000000000      2.335500000000000
H      -2.791500000000000      3.518600000000000      2.083900000000000
H      -3.028800000000000      3.220600000000000      0.368200000000000
H      -5.107200000000000      2.890100000000000      1.681700000000000
H      -4.312700000000000      1.721300000000000      2.721600000000000
H      -4.049100000000000      0.164000000000000      0.846100000000000
H      -5.632500000000000      2.175700000000000     -0.824600000000000
H      -3.918200000000000      1.918600000000000     -1.004700000000000
H      -5.129600000000000      0.762700000000000     -2.756100000000000
H      -6.114400000000000     -0.100800000000000     -1.603400000000000
H      -4.364500000000000     -1.564400000000000     -2.472200000000000
H      -4.198200000000000     -1.346300000000000     -0.749800000000000
H      -2.371500000000000      0.372200000000000     -1.197900000000000
H      -6.078200000000000      0.061000000000000      2.264600000000000
H      -6.374800000000000     -0.551600000000000      0.638700000000000
H      -6.948700000000000      1.064300000000000      1.093400000000000
H      -1.736700000000000     -2.298100000000000     -2.476000000000000
H      -0.586500000000000     -1.120900000000000     -1.862700000000000
H      -1.520300000000000     -1.433800000000000      0.432200000000000
H      -2.598500000000000     -2.688300000000000     -0.173900000000000
H      -2.712500000000000     -0.499100000000000     -4.107000000000000
H      -1.373200000000000      0.476100000000000     -3.480400000000000
H      -3.009700000000000      1.121400000000000     -3.447900000000000
H      -0.667400000000000     -4.044400000000000     -0.929700000000000
H       0.443500000000000     -2.821400000000000     -0.322200000000000
H      -1.539700000000000     -4.432700000000000      1.372000000000000
H      -1.196300000000000     -2.261000000000000      2.458600000000000
H      -0.269700000000000     -3.474400000000000      3.332900000000000
H       0.559100000000000     -2.367700000000000      2.224700000000000
H       0.479600000000000     -5.561900000000000      2.259500000000000
H       0.358500000000000     -5.785300000000000      0.509500000000000
H       1.514000000000000     -4.616200000000000      1.173800000000000
