81

N       3.022300000000000     -1.316500000000000     -0.237000000000000
N      -1.523900000000000      1.300500000000000      1.290200000000000
C       2.256600000000000      0.732000000000000      1.048000000000000
C       3.845300000000000      1.686100000000000     -0.920800000000000
C       2.487300000000000      1.662200000000000     -0.175400000000000
C       3.041100000000000     -0.601500000000000      1.048300000000000
C       4.028500000000000      0.411000000000000     -1.777500000000000
C       0.739100000000000      0.414900000000000      1.099400000000000
C       4.179500000000000     -0.931700000000000     -1.061900000000000
C       2.598700000000000      1.486900000000000      2.353000000000000
C       3.786500000000000      2.878700000000000     -1.915100000000000
C       5.049600000000000      1.941200000000000     -0.004200000000000
C       3.066600000000000     -2.764700000000000      0.004100000000000
C      -0.117300000000000      1.667500000000000      1.235800000000000
C       1.694400000000000     -3.271500000000000      0.440500000000000
C       1.718600000000000     -4.766800000000000      0.717500000000000
C      -2.401200000000000      2.239800000000000      1.404000000000000
C      -3.865700000000000      1.842300000000000      1.412100000000000
C      -2.079100000000000      3.714500000000000      1.471300000000000
C      -4.572400000000000      2.416200000000000      0.185200000000000
C      -3.936100000000000      1.997800000000000     -1.141700000000000
C      -3.993700000000000      0.518400000000000     -1.399700000000000
C      -3.140300000000000     -0.230300000000000     -2.126000000000000
C      -3.284400000000000     -1.720000000000000     -2.359300000000000
C      -2.526700000000000     -2.606200000000000     -1.359000000000000
C      -3.032400000000000     -2.462000000000000      0.078500000000000
C      -1.957300000000000      0.424100000000000     -2.793400000000000
C      -2.274200000000000     -3.385500000000000      1.031900000000000
C      -2.809400000000000     -3.277400000000000      2.451200000000000
H       2.261300000000000      2.693800000000000      0.130400000000000
H       1.730000000000000      1.425800000000000     -0.938300000000000
H       4.073300000000000     -0.456100000000000      1.387800000000000
H       2.615200000000000     -1.214600000000000      1.853100000000000
H       4.918800000000000      0.538500000000000     -2.409600000000000
H       3.185700000000000      0.327600000000000     -2.478900000000000
H       0.519100000000000     -0.253200000000000      1.943500000000000
H       0.433300000000000     -0.136400000000000      0.199900000000000
H       4.307600000000000     -1.666800000000000     -1.868500000000000
H       5.115500000000000     -0.964400000000000     -0.489600000000000
H       2.215100000000000      0.957900000000000      3.233200000000000
H       2.211000000000000      2.510100000000000      2.373900000000000
H       3.682800000000000      1.573500000000000      2.482900000000000
H       3.669800000000000      3.831700000000000     -1.386200000000000
H       4.702400000000000      2.944200000000000     -2.513700000000000
H       2.943800000000000      2.777800000000000     -2.608900000000000
H       5.245100000000000      1.124600000000000      0.690500000000000
H       4.903700000000000      2.851800000000000      0.587900000000000
H       5.965200000000000      2.076700000000000     -0.592200000000000
H       3.840000000000000     -3.026800000000000      0.738200000000000
H       3.318400000000000     -3.298700000000000     -0.921800000000000
H       0.135800000000000      2.191000000000000      2.161500000000000
H       0.043100000000000      2.342900000000000      0.390000000000000
H       0.958600000000000     -3.067900000000000     -0.347300000000000
H       1.336300000000000     -2.771000000000000      1.345100000000000
H       2.018800000000000     -5.326900000000000     -0.173800000000000
H       2.417700000000000     -5.004500000000000      1.525600000000000
H       0.724100000000000     -5.113500000000000      1.015900000000000
H      -4.323700000000000      2.237300000000000      2.325600000000000
H      -3.955500000000000      0.751300000000000      1.446200000000000
H      -1.266100000000000      3.905400000000000      2.175200000000000
H      -1.795100000000000      4.070800000000000      0.477600000000000
H      -2.950400000000000      4.278800000000000      1.814600000000000
H      -5.623800000000000      2.102700000000000      0.207300000000000
H      -4.580700000000000      3.511700000000000      0.235100000000000
H      -4.493200000000000      2.494500000000000     -1.946100000000000
H      -2.912800000000000      2.380300000000000     -1.186100000000000
H      -4.855000000000000      0.006500000000000     -0.971600000000000
H      -4.349000000000000     -1.987400000000000     -2.326700000000000
H      -2.955600000000000     -1.963400000000000     -3.377200000000000
H      -1.456200000000000     -2.369300000000000     -1.398000000000000
H      -2.631400000000000     -3.651500000000000     -1.675000000000000
H      -2.908400000000000     -1.429500000000000      0.422300000000000
H      -4.104000000000000     -2.692100000000000      0.114600000000000
H      -1.038600000000000      0.176900000000000     -2.251300000000000
H      -1.854800000000000      0.055400000000000     -3.820300000000000
H      -2.028200000000000      1.511000000000000     -2.873700000000000
H      -2.357500000000000     -4.424700000000000      0.693800000000000
H      -1.211000000000000     -3.125200000000000      1.030200000000000
H      -2.711900000000000     -2.254700000000000      2.829800000000000
H      -2.250600000000000     -3.941300000000000      3.118200000000000
H      -3.865700000000000     -3.561300000000000      2.495100000000000
