82

N      -4.352300000000000     -1.208900000000000     -0.269400000000000
N       4.392400000000000     -1.245400000000000      0.262600000000000
C      -5.643100000000000      0.856800000000000      0.537300000000000
C       5.622300000000000      0.853000000000000     -0.539200000000000
C      -6.501800000000000      1.214500000000000     -0.720000000000000
C       6.468000000000000      1.235100000000000      0.719600000000000
C      -7.601600000000000      0.202100000000000     -0.308300000000000
C       7.596600000000000      0.253600000000000      0.310700000000000
C      -5.494900000000000     -0.703100000000000      0.493500000000000
C       5.517500000000000     -0.710400000000000     -0.495100000000000
C      -6.829100000000000     -1.133500000000000     -0.164200000000000
C       6.861900000000000     -1.103300000000000      0.165500000000000
C      -6.647700000000000      1.123600000000000      1.703100000000000
C       6.621500000000000      1.147300000000000     -1.703000000000000
C      -7.988400000000000      0.648200000000000      1.118300000000000
C       7.973600000000000      0.709700000000000     -1.115200000000000
C      -4.347700000000000      1.627100000000000      0.724900000000000
C       4.306200000000000      1.587000000000000     -0.729800000000000
C      -5.857900000000000      0.923300000000000     -2.088900000000000
C      -6.987500000000000      2.678300000000000     -0.791500000000000
C       6.912500000000000      2.711800000000000      0.791600000000000
C       5.829600000000000      0.926400000000000      2.087300000000000
C      -3.137800000000000     -1.166600000000000      0.536200000000000
C       3.175000000000000     -1.241500000000000     -0.550600000000000
C      -4.615800000000000     -2.572000000000000     -0.734100000000000
C       4.685000000000000     -2.600700000000000      0.732100000000000
C      -1.903200000000000     -1.244900000000000     -0.360300000000000
C       1.940400000000000     -1.277800000000000      0.349700000000000
C      -0.615900000000000     -1.223800000000000      0.468100000000000
C       0.622100000000000     -1.265800000000000     -0.430700000000000
H      -8.457599999999999      0.134300000000000     -0.984200000000000
H       8.452700000000000      0.209900000000000      0.988500000000000
H      -5.461500000000000     -1.122100000000000      1.509600000000000
H       5.499700000000000     -1.130100000000000     -1.511300000000000
H      -7.366900000000000     -1.856000000000000      0.460800000000000
H      -6.777500000000000     -1.560400000000000     -1.166400000000000
H       6.819700000000000     -1.531500000000000      1.167600000000000
H       7.420900000000000     -1.810700000000000     -0.458100000000000
H      -6.694500000000000      2.183600000000000      1.975900000000000
H      -6.389200000000000      0.574500000000000      2.615400000000000
H       6.639300000000000      2.208100000000000     -1.976100000000000
H       6.380300000000000      0.591000000000000     -2.615700000000000
H      -8.422900000000000     -0.165800000000000      1.708000000000000
H      -8.716799999999999      1.465600000000000      1.100000000000000
H       8.431900000000001     -0.092100000000000     -1.703800000000000
H       8.679000000000000      1.547100000000000     -1.095900000000000
H      -3.897100000000000      1.433300000000000      1.702900000000000
H      -4.548100000000000      2.705300000000000      0.708500000000000
H      -3.625500000000000      1.446700000000000     -0.075900000000000
H       3.864200000000000      1.382900000000000     -1.709600000000000
H       4.475400000000000      2.670300000000000     -0.709600000000000
H       3.585900000000000      1.382700000000000      0.066700000000000
H      -5.535300000000000     -0.106400000000000     -2.238400000000000
H      -6.569200000000000      1.135600000000000     -2.896000000000000
H      -4.980100000000000      1.560300000000000     -2.245500000000000
H      -7.740700000000000      2.790200000000000     -1.580300000000000
H      -7.441000000000000      3.055800000000000      0.126900000000000
H      -6.155700000000000      3.350800000000000     -1.030600000000000
H       7.660900000000000      2.844800000000000      1.581700000000000
H       7.357000000000000      3.101500000000000     -0.126200000000000
H       6.062000000000000      3.360900000000000      1.029000000000000
H       5.536200000000000     -0.112000000000000      2.236900000000000
H       6.532800000000000      1.159400000000000      2.895900000000000
H       4.933700000000000      1.538200000000000      2.241500000000000
H      -3.032800000000000     -0.290300000000000      1.168700000000000
H      -3.127900000000000     -2.010000000000000      1.242100000000000
H       3.164600000000000     -2.114800000000000     -1.218800000000000
H       3.074900000000000     -0.393600000000000     -1.222600000000000
H      -3.702200000000000     -3.103000000000000     -1.019800000000000
H      -5.207000000000000     -2.588700000000000     -1.654200000000000
H      -5.094700000000000     -3.195600000000000      0.031000000000000
H       3.778200000000000     -3.144600000000000      1.017500000000000
H       5.275200000000000     -2.603300000000000      1.653000000000000
H       5.176900000000000     -3.217200000000000     -0.030500000000000
H      -1.895200000000000     -2.149800000000000     -0.975500000000000
H      -1.901300000000000     -0.391800000000000     -1.051200000000000
H       1.938300000000000     -2.162500000000000      0.995100000000000
H       1.958900000000000     -0.406400000000000      1.017400000000000
H      -0.586100000000000     -0.318100000000000      1.085800000000000
H      -0.603000000000000     -2.082500000000000      1.150000000000000
H       0.608400000000000     -0.395900000000000     -1.099200000000000
H       0.579200000000000     -2.156900000000000     -1.069300000000000
