82

N       2.610200000000000      0.091500000000000      0.224000000000000
N      -2.600300000000000     -0.094600000000000     -0.190600000000000
C       3.090700000000000      1.434500000000000     -0.097400000000000
C       3.733600000000000     -0.831300000000000      0.374800000000000
C      -3.157200000000000     -1.445400000000000     -0.244100000000000
C      -3.611200000000000      0.852200000000000      0.276400000000000
C       1.693100000000000     -0.385300000000000     -0.811000000000000
C      -2.089800000000000      0.302200000000000     -1.497500000000000
C       2.016300000000000      2.485300000000000      0.225700000000000
C       4.391700000000000      1.733400000000000      0.647300000000000
C       3.292900000000000     -2.062000000000000      1.175000000000000
C       4.268000000000000     -1.231300000000000     -1.004800000000000
C      -2.033700000000000     -2.494500000000000     -0.241400000000000
C      -4.124800000000000     -1.675200000000000      0.916800000000000
C      -2.932400000000000      2.122200000000000      0.801100000000000
C      -4.586200000000000      1.176100000000000     -0.860800000000000
C       0.285400000000000      0.193100000000000     -0.652800000000000
C      -0.697800000000000     -0.287000000000000     -1.725500000000000
C       2.582700000000000      3.896400000000000      0.414800000000000
C       4.973200000000000      3.093700000000000      0.247600000000000
C       4.421100000000000     -3.086000000000000      1.287500000000000
C       5.395400000000000     -2.255800000000000     -0.889200000000000
C      -2.496800000000000     -3.881100000000000      0.217700000000000
C      -4.803400000000000     -3.046300000000000      0.825300000000000
C      -3.961500000000000      3.167600000000000      1.227700000000000
C      -5.613500000000000      2.222300000000000     -0.431800000000000
C       3.927400000000000      4.080600000000000     -0.274400000000000
C       4.964300000000000     -3.478100000000000     -0.083500000000000
C      -3.995500000000000     -4.081800000000000      0.041100000000000
C      -4.941800000000000      3.484400000000000      0.102100000000000
H       3.324200000000000      1.507300000000000     -1.169900000000000
H       4.539600000000000     -0.480900000000000      1.018900000000000
H      -3.742400000000000     -1.579000000000000     -1.166000000000000
H      -4.146600000000000      0.555300000000000      1.177800000000000
H       1.552700000000000     -1.471100000000000     -0.771400000000000
H       2.042900000000000     -0.150000000000000     -1.825400000000000
H      -2.734200000000000     -0.014400000000000     -2.328600000000000
H      -1.966700000000000      1.386500000000000     -1.598000000000000
H       1.383900000000000      2.611700000000000     -0.654900000000000
H       1.397000000000000      2.221000000000000      1.090100000000000
H       4.233300000000000      1.711200000000000      1.733600000000000
H       5.224200000000000      1.068400000000000      0.402300000000000
H       2.980600000000000     -1.761700000000000      2.183500000000000
H       2.431100000000000     -2.566500000000000      0.724700000000000
H       3.517200000000000     -1.709800000000000     -1.642700000000000
H       4.652200000000000     -0.363100000000000     -1.552500000000000
H      -1.167500000000000     -2.197000000000000      0.358700000000000
H      -1.717700000000000     -2.671000000000000     -1.270500000000000
H      -3.605200000000000     -1.590800000000000      1.880400000000000
H      -4.994100000000000     -1.012400000000000      0.929200000000000
H      -2.279200000000000      2.584700000000000      0.053100000000000
H      -2.292200000000000      1.878700000000000      1.659000000000000
H      -5.128900000000000      0.282300000000000     -1.188900000000000
H      -4.100200000000000      1.600300000000000     -1.745900000000000
H      -0.074500000000000     -0.091800000000000      0.343600000000000
H       0.219100000000000      1.267700000000000     -0.698600000000000
H      -0.630800000000000     -1.354700000000000     -1.887700000000000
H      -0.345400000000000      0.123300000000000     -2.684100000000000
H       2.709700000000000      4.084500000000000      1.488800000000000
H       1.864100000000000      4.642200000000000      0.055000000000000
H       5.742400000000000      2.965400000000000     -0.524600000000000
H       5.485600000000000      3.524400000000000      1.116800000000000
H       4.057500000000000     -3.978900000000000      1.808600000000000
H       5.233400000000000     -2.671700000000000      1.897500000000000
H       6.263700000000000     -1.788900000000000     -0.407900000000000
H       5.716400000000000     -2.568300000000000     -1.889500000000000
H      -2.248600000000000     -4.003500000000000      1.279800000000000
H      -1.942000000000000     -4.659200000000000     -0.319400000000000
H      -5.790500000000000     -2.950500000000000      0.355200000000000
H      -4.986900000000000     -3.414400000000000      1.842300000000000
H      -3.447900000000000      4.084800000000000      1.537700000000000
H      -4.514600000000000      2.802900000000000      2.102100000000000
H      -6.262900000000000      1.798300000000000      0.344200000000000
H      -6.258200000000000      2.478700000000000     -1.280300000000000
H       3.800800000000000      3.942200000000000     -1.355600000000000
H       4.288300000000000      5.105700000000000     -0.132900000000000
H       5.814700000000000     -4.158400000000000      0.037700000000000
H       4.192700000000000     -4.026500000000000     -0.637800000000000
H      -4.245900000000000     -4.010700000000000     -1.024900000000000
H      -4.283100000000000     -5.089700000000000      0.361100000000000
H      -5.704600000000000      4.183400000000000      0.463300000000000
H      -4.408900000000000      3.986900000000000     -0.714500000000000
