82

O       4.673000000000000     -0.589500000000000     -0.741600000000000
O      -4.665700000000000     -0.579500000000000     -0.735900000000000
C       1.106100000000000     -2.569500000000000      0.349500000000000
C      -1.102100000000000     -2.567300000000000      0.351200000000000
C       0.002300000000000     -1.753300000000000     -0.379400000000000
C       0.001500000000000     -3.506800000000000      0.906000000000000
C       1.862300000000000     -1.812200000000000      1.451000000000000
C       2.079300000000000     -3.302800000000000     -0.585300000000000
C      -1.855200000000000     -1.808500000000000      1.453600000000000
C      -2.078200000000000     -3.298800000000000     -0.582100000000000
C       2.865200000000000     -0.838200000000000      0.837800000000000
C       3.075300000000000     -2.319000000000000     -1.192700000000000
C      -2.856800000000000     -0.832300000000000      0.841500000000000
C      -3.072800000000000     -2.313100000000000     -1.188400000000000
C       3.830600000000000     -1.548200000000000     -0.111300000000000
C      -3.824800000000000     -1.540200000000000     -0.106300000000000
C       5.715100000000000     -0.164100000000000      0.124800000000000
C      -5.728000000000000     -0.179900000000000      0.118000000000000
C       6.589000000000000      0.840500000000000     -0.612900000000000
C      -6.574700000000000      0.859200000000000     -0.603300000000000
C       7.726000000000000      1.353800000000000      0.269400000000000
C      -7.750000000000000      1.323900000000000      0.255400000000000
C       8.572600000000000      2.393800000000000     -0.467600000000000
C      -8.618000000000000      2.336400000000000     -0.494900000000000
C       9.743200000000000      2.926100000000000      0.364100000000000
C      -9.800200000000000      2.854100000000000      0.329500000000000
C      10.632400000000001      3.910000000000000     -0.397400000000000
C     -10.624700000000001      3.920400000000000     -0.392800000000000
C      11.818000000000000      4.352800000000000      0.446500000000000
C     -11.740800000000000      4.452400000000000      0.493400000000000
H       0.003600000000000     -0.678000000000000     -0.171300000000000
H       0.001400000000000     -1.871300000000000     -1.469800000000000
H       0.000200000000000     -4.512800000000000      0.467600000000000
H       0.002200000000000     -3.634000000000000      1.994900000000000
H       2.394300000000000     -2.525200000000000      2.093800000000000
H       1.171900000000000     -1.259400000000000      2.097400000000000
H       1.538200000000000     -3.815500000000000     -1.389800000000000
H       2.622700000000000     -4.075300000000000     -0.026300000000000
H      -1.162900000000000     -1.257100000000000      2.099100000000000
H      -2.388000000000000     -2.520200000000000      2.097100000000000
H      -2.622400000000000     -4.070000000000000     -0.022300000000000
H      -1.539300000000000     -3.812900000000000     -1.387200000000000
H       3.403600000000000     -0.341000000000000      1.651000000000000
H       2.341100000000000     -0.040000000000000      0.296900000000000
H       2.557000000000000     -1.612300000000000     -1.853600000000000
H       3.788600000000000     -2.854100000000000     -1.831300000000000
H      -3.394500000000000     -0.332000000000000      1.653300000000000
H      -2.331200000000000     -0.035900000000000      0.299400000000000
H      -2.553800000000000     -1.607800000000000     -1.850300000000000
H      -3.788200000000000     -2.846800000000000     -1.825600000000000
H       4.441900000000000     -2.267600000000000      0.450700000000000
H      -4.436500000000000     -2.258400000000000      0.457000000000000
H       5.307200000000000      0.312100000000000      1.021200000000000
H       6.321000000000000     -1.026600000000000      0.426900000000000
H      -6.345900000000000     -1.050800000000000      0.367100000000000
H      -5.343100000000000      0.255300000000000      1.045200000000000
H       5.967200000000000      1.677400000000000     -0.955000000000000
H       6.992300000000000      0.375400000000000     -1.521000000000000
H      -6.938800000000000      0.436200000000000     -1.548000000000000
H      -5.944900000000000      1.713900000000000     -0.880100000000000
H       7.314700000000000      1.801100000000000      1.182300000000000
H       8.360799999999999      0.514300000000000      0.577600000000000
H      -8.363500000000000      0.461500000000000      0.542600000000000
H      -7.374000000000000      1.776500000000000      1.180800000000000
H       8.964800000000000      1.947700000000000     -1.390200000000000
H       7.936300000000000      3.235100000000000     -0.768800000000000
H      -7.994900000000000      3.187300000000000     -0.797800000000000
H      -8.998100000000001      1.878800000000000     -1.416700000000000
H      10.352900000000000      2.078100000000000      0.700600000000000
H       9.352100000000000      3.411600000000000      1.266700000000000
H      -9.420000000000000      3.271200000000000      1.270500000000000
H     -10.449100000000000      2.011000000000000      0.597300000000000
H      10.045999999999999      4.787900000000000     -0.691800000000000
H      11.001600000000000      3.441900000000000     -1.317200000000000
H      -9.976400000000000      4.752200000000000     -0.691600000000000
H     -11.055400000000001      3.498700000000000     -1.308200000000000
H      11.483300000000000      4.849200000000000      1.362900000000000
H      12.439600000000000      5.057800000000000     -0.114300000000000
H      12.442000000000000      3.498000000000000      0.726300000000000
H     -12.423299999999999      3.649200000000000      0.788900000000000
H     -12.320200000000000      5.211000000000000     -0.041900000000000
H     -11.336499999999999      4.911700000000000      1.401100000000000
