82

O      -6.311500000000000      0.129200000000000     -2.023400000000000
N      -4.486200000000000      0.276500000000000     -0.590300000000000
C       5.525600000000000      0.149700000000000     -2.269700000000000
C       5.501900000000000     -0.525100000000000     -0.895000000000000
C       4.176400000000000      0.633600000000000     -2.812200000000000
C       4.561600000000000     -1.730100000000000     -0.802400000000000
C       3.322300000000000      1.459600000000000     -1.848100000000000
C       4.636700000000000     -2.365600000000000      0.589000000000000
C       3.977300000000000      2.767300000000000     -1.389800000000000
C       3.623400000000000     -3.493000000000000      0.804500000000000
C       3.120800000000000      3.481800000000000     -0.336900000000000
C       2.180000000000000     -2.988300000000000      0.912300000000000
C       3.270800000000000      2.852700000000000      1.054300000000000
C       1.229900000000000     -4.113400000000000      1.331200000000000
C       2.144100000000000      3.224400000000000      2.022500000000000
C      -0.207600000000000     -3.637700000000000      1.562800000000000
C       0.819300000000000      2.548600000000000      1.654000000000000
C      -0.924500000000000     -3.224800000000000      0.275600000000000
C      -0.223900000000000      2.692800000000000      2.765300000000000
C      -2.387300000000000     -2.860000000000000      0.548200000000000
C      -1.540000000000000      1.991000000000000      2.413500000000000
C      -3.126400000000000     -2.534800000000000     -0.751800000000000
C      -2.392600000000000      2.794400000000000      1.426500000000000
C      -4.611300000000000     -2.223600000000000     -0.540500000000000
C      -3.626800000000000      2.023300000000000      0.951500000000000
C      -4.907600000000000     -0.901300000000000      0.177500000000000
C      -3.285000000000000      0.982200000000000     -0.119700000000000
C      -5.272600000000000      0.693700000000000     -1.669600000000000
C      -4.787000000000000      1.897100000000000     -2.439600000000000
H       6.217500000000000      0.999500000000000     -2.223200000000000
H       5.957400000000000     -0.547300000000000     -2.999100000000000
H       5.230700000000000      0.211300000000000     -0.129500000000000
H       6.523300000000000     -0.848300000000000     -0.657300000000000
H       3.589900000000000     -0.238300000000000     -3.127900000000000
H       4.357900000000000      1.218300000000000     -3.722700000000000
H       3.535600000000000     -1.416800000000000     -1.011900000000000
H       4.833600000000000     -2.473300000000000     -1.561200000000000
H       2.378400000000000      1.701400000000000     -2.353600000000000
H       3.046100000000000      0.845100000000000     -0.986500000000000
H       5.645200000000000     -2.772500000000000      0.734600000000000
H       4.493700000000000     -1.598600000000000      1.360200000000000
H       4.980100000000000      2.591700000000000     -0.986400000000000
H       4.092400000000000      3.424500000000000     -2.260200000000000
H       3.703400000000000     -4.229700000000000     -0.003700000000000
H       3.889300000000000     -4.011400000000000      1.734300000000000
H       3.432900000000000      4.531600000000000     -0.275600000000000
H       2.077400000000000      3.486700000000000     -0.667600000000000
H       2.128400000000000     -2.177100000000000      1.648600000000000
H       1.861900000000000     -2.575700000000000     -0.050200000000000
H       3.332300000000000      1.760800000000000      0.991800000000000
H       4.225400000000000      3.185700000000000      1.481100000000000
H       1.241200000000000     -4.911000000000000      0.578600000000000
H       1.594400000000000     -4.556500000000000      2.266400000000000
H       2.442300000000000      2.904800000000000      3.028700000000000
H       2.016000000000000      4.312600000000000      2.057200000000000
H      -0.765200000000000     -4.458100000000000      2.031800000000000
H      -0.212600000000000     -2.804800000000000      2.276400000000000
H       0.433800000000000      2.979800000000000      0.725400000000000
H       0.992700000000000      1.481900000000000      1.464800000000000
H      -0.420300000000000     -2.365300000000000     -0.180000000000000
H      -0.879800000000000     -4.049100000000000     -0.446300000000000
H       0.173800000000000      2.239400000000000      3.681600000000000
H      -0.404500000000000      3.751600000000000      2.984700000000000
H      -2.887400000000000     -3.697600000000000      1.049500000000000
H      -2.423400000000000     -2.006100000000000      1.233200000000000
H      -1.326800000000000      0.989400000000000      2.024200000000000
H      -2.118100000000000      1.851900000000000      3.335500000000000
H      -2.633100000000000     -1.706600000000000     -1.272700000000000
H      -3.056400000000000     -3.403400000000000     -1.419100000000000
H      -2.725700000000000      3.712300000000000      1.926800000000000
H      -1.803700000000000      3.108200000000000      0.558300000000000
H      -5.098900000000000     -2.219000000000000     -1.522900000000000
H      -5.071400000000000     -3.041500000000000      0.027400000000000
H      -4.126500000000000      1.546900000000000      1.803500000000000
H      -4.346100000000000      2.740200000000000      0.538400000000000
H      -5.992100000000000     -0.827900000000000      0.325100000000000
H      -4.452500000000000     -0.875600000000000      1.172900000000000
H      -2.791800000000000      1.471100000000000     -0.964700000000000
H      -2.579200000000000      0.240000000000000      0.264300000000000
H      -3.846100000000000      1.663000000000000     -2.944400000000000
H      -4.661300000000000      2.758300000000000     -1.780500000000000
H      -5.526900000000000      2.161500000000000     -3.201600000000000
