82

N       0.047100000000000     -0.798300000000000      1.411800000000000
N      -0.271200000000000     -0.544600000000000     -1.707000000000000
C      -3.835200000000000     -2.278100000000000      0.361000000000000
C      -3.579100000000000     -1.729000000000000      1.829300000000000
C      -3.408500000000000     -0.800600000000000     -0.050300000000000
C      -4.080300000000000     -0.349600000000000      1.295300000000000
C      -2.098300000000000     -1.616100000000000      2.245200000000000
C      -1.925800000000000     -0.554400000000000      0.009900000000000
C      -5.257100000000000     -2.742500000000000      0.019400000000000
C      -2.866000000000000     -3.383900000000000     -0.102600000000000
C      -1.284700000000000     -0.937100000000000      1.138500000000000
C      -1.233600000000000      0.093600000000000     -1.128200000000000
C      -1.718300000000000      1.485100000000000     -1.505900000000000
C       0.657200000000000     -1.266000000000000      2.627700000000000
C      -1.001300000000000      2.547200000000000     -0.665400000000000
C      -1.462000000000000      4.010300000000000     -0.896700000000000
C       2.163700000000000     -1.020300000000000      2.606500000000000
C       0.426100000000000      0.067300000000000     -2.825700000000000
C       2.518800000000000      0.467800000000000      2.512300000000000
C      -1.170600000000000      4.465100000000000     -2.335900000000000
C      -2.983500000000000      4.078400000000000     -0.659600000000000
C      -0.773400000000000      4.969700000000000      0.088500000000000
C       1.568300000000000     -0.832900000000000     -3.285000000000000
C       4.034500000000000      0.677600000000000      2.560100000000000
C       2.600900000000000     -1.169600000000000     -2.203000000000000
C       4.445200000000000      2.150500000000000      2.500300000000000
C       3.762100000000000     -2.024700000000000     -2.714100000000000
C       4.802000000000000     -2.257700000000000     -1.617000000000000
C       5.945800000000000      2.368400000000000      2.618300000000000
C       5.977400000000000     -3.075800000000000     -2.127700000000000
H      -4.200000000000000     -2.176300000000000      2.612100000000000
H      -3.885900000000000     -0.425500000000000     -0.960100000000000
H      -3.678000000000000      0.546600000000000      1.779800000000000
H      -5.168700000000000     -0.233000000000000      1.251900000000000
H      -1.715500000000000     -2.621400000000000      2.453300000000000
H      -2.041300000000000     -1.029600000000000      3.170000000000000
H      -5.493300000000000     -3.680800000000000      0.532900000000000
H      -6.016800000000000     -2.012400000000000      0.312200000000000
H      -5.362900000000000     -2.906300000000000     -1.058500000000000
H      -2.955100000000000     -3.533600000000000     -1.185000000000000
H      -1.810500000000000     -3.203300000000000      0.102800000000000
H      -3.117500000000000     -4.333300000000000      0.384700000000000
H       0.627700000000000     -0.400700000000000      0.681000000000000
H      -1.573000000000000      1.657800000000000     -2.574600000000000
H      -2.796900000000000      1.527000000000000     -1.334500000000000
H       0.228000000000000     -0.756700000000000      3.498500000000000
H       0.498800000000000     -2.343900000000000      2.747800000000000
H       0.079800000000000      2.481500000000000     -0.843400000000000
H      -1.133200000000000      2.301500000000000      0.397500000000000
H       2.611900000000000     -1.553900000000000      1.758600000000000
H       2.601400000000000     -1.443000000000000      3.519000000000000
H      -0.256600000000000      0.210300000000000     -3.671300000000000
H       0.841900000000000      1.041000000000000     -2.544700000000000
H       2.131000000000000      0.901400000000000      1.583700000000000
H       2.049500000000000      1.009200000000000      3.342600000000000
H      -1.455300000000000      5.513300000000000     -2.482400000000000
H      -1.723000000000000      3.874600000000000     -3.073800000000000
H      -0.102900000000000      4.375500000000000     -2.565100000000000
H      -3.551600000000000      3.559500000000000     -1.438300000000000
H      -3.255900000000000      3.647700000000000      0.310600000000000
H      -3.330200000000000      5.118900000000000     -0.664400000000000
H       0.314400000000000      4.945900000000000     -0.040400000000000
H      -0.992100000000000      4.693800000000000      1.126100000000000
H      -1.105200000000000      6.003400000000000     -0.059700000000000
H       1.148300000000000     -1.772000000000000     -3.667800000000000
H       2.075200000000000     -0.349000000000000     -4.128900000000000
H       4.502500000000000      0.140400000000000      1.725800000000000
H       4.429800000000000      0.235200000000000      3.483000000000000
H       2.110300000000000     -1.696000000000000     -1.375200000000000
H       2.995800000000000     -0.232500000000000     -1.790600000000000
H       4.095000000000000      2.586400000000000      1.557000000000000
H       3.946600000000000      2.699500000000000      3.308000000000000
H       3.379100000000000     -2.986700000000000     -3.075000000000000
H       4.235900000000000     -1.524100000000000     -3.567100000000000
H       5.171400000000000     -1.295800000000000     -1.242500000000000
H       4.339300000000000     -2.778700000000000     -0.770700000000000
H       6.322800000000000      1.981000000000000      3.570100000000000
H       6.477900000000000      1.862500000000000      1.806500000000000
H       6.180600000000000      3.436100000000000      2.567400000000000
H       5.647200000000000     -4.057400000000000     -2.482200000000000
H       6.482700000000000     -2.564100000000000     -2.952900000000000
H       6.707100000000000     -3.231600000000000     -1.326900000000000
