82

O      -5.067400000000000     -1.630000000000000      0.403200000000000
O      -4.133800000000000     -2.662000000000000     -1.440800000000000
C       1.421600000000000     -0.262500000000000      0.388200000000000
C       0.075900000000000     -0.724300000000000     -0.167500000000000
C       1.746300000000000      1.158000000000000     -0.090900000000000
C       2.535700000000000     -1.239400000000000     -0.009000000000000
C       4.225700000000000      0.648000000000000      0.012600000000000
C      -0.268000000000000     -2.129700000000000      0.344300000000000
C      -1.031200000000000      0.274900000000000      0.194300000000000
C       3.111900000000000      1.624700000000000      0.410300000000000
C       3.901300000000000     -0.772500000000000      0.491900000000000
C      -1.633300000000000     -2.593800000000000     -0.158300000000000
C      -2.396900000000000     -0.190100000000000     -0.306800000000000
C      -2.732600000000000     -1.593400000000000      0.198700000000000
C       5.572000000000000      1.110300000000000      0.566900000000000
C       6.731000000000000      0.503600000000000     -0.218700000000000
C      -4.035100000000000     -2.034400000000000     -0.395000000000000
C       8.077299999999999      0.994100000000000      0.319400000000000
C       9.242500000000000      0.357700000000000     -0.441600000000000
C      -6.371800000000000     -1.985100000000000     -0.046800000000000
C      10.616700000000000      0.758600000000000      0.102500000000000
C      -7.371100000000000     -0.921400000000000      0.417600000000000
C      -6.727700000000000     -3.356600000000000      0.511100000000000
C      11.778700000000001      0.065600000000000     -0.610400000000000
C      -7.040300000000000      0.466600000000000     -0.144600000000000
C      -8.068400000000000      1.505900000000000      0.309200000000000
C      13.119400000000001      0.506300000000000     -0.042600000000000
C      -7.804100000000000      2.907300000000000     -0.248500000000000
C      -8.871600000000001      3.929300000000000      0.144100000000000
C      -8.602600000000001      5.284300000000000     -0.492700000000000
H       1.365000000000000     -0.242500000000000      1.486100000000000
H       0.141000000000000     -0.770700000000000     -1.264100000000000
H       1.018000000000000      1.883900000000000      0.282800000000000
H       1.724200000000000      1.204300000000000     -1.187000000000000
H       2.568000000000000     -1.355100000000000     -1.099700000000000
H       2.368900000000000     -2.232300000000000      0.419000000000000
H       4.274500000000000      0.640600000000000     -1.085200000000000
H       0.460000000000000     -2.870800000000000      0.001400000000000
H      -0.258900000000000     -2.146500000000000      1.441400000000000
H      -1.071800000000000      0.420400000000000      1.281100000000000
H      -0.853800000000000      1.253600000000000     -0.261400000000000
H       3.081100000000000      1.729700000000000      1.502500000000000
H       3.322300000000000      2.620300000000000      0.001300000000000
H       3.912700000000000     -0.809900000000000      1.588900000000000
H       4.660400000000000     -1.481000000000000      0.143000000000000
H      -1.579400000000000     -2.734600000000000     -1.245900000000000
H      -1.867300000000000     -3.576900000000000      0.268900000000000
H      -3.166300000000000      0.521000000000000      0.018800000000000
H      -2.407900000000000     -0.172700000000000     -1.404700000000000
H      -2.833400000000000     -1.580100000000000      1.292300000000000
H       5.659200000000000      0.863600000000000      1.632100000000000
H       5.644500000000000      2.203000000000000      0.491500000000000
H       6.700200000000000     -0.589800000000000     -0.158100000000000
H       6.644700000000000      0.771800000000000     -1.278800000000000
H       8.159000000000001      0.745800000000000      1.384500000000000
H       8.137400000000000      2.085800000000000      0.235400000000000
H       9.179900000000000      0.634500000000000     -1.501300000000000
H       9.148700000000000     -0.734500000000000     -0.394200000000000
H      -6.410500000000000     -2.022400000000000     -1.143400000000000
H      10.660800000000000      0.521900000000000      1.173000000000000
H      10.731299999999999      1.846100000000000      0.014500000000000
H      -8.384700000000000     -1.210100000000000      0.114300000000000
H      -7.359600000000000     -0.863100000000000      1.513500000000000
H      -6.677200000000000     -3.358600000000000      1.605500000000000
H      -6.018600000000000     -4.115000000000000      0.163000000000000
H      -7.733900000000000     -3.660400000000000      0.206500000000000
H      11.746600000000001      0.295700000000000     -1.681500000000000
H      11.681800000000001     -1.021300000000000     -0.508100000000000
H      -7.022300000000000      0.423400000000000     -1.240200000000000
H      -6.042500000000000      0.779900000000000      0.183900000000000
H      -9.068500000000000      1.181200000000000     -0.003900000000000
H      -8.079700000000001      1.553000000000000      1.405200000000000
H      13.259200000000000      1.585700000000000     -0.158800000000000
H      13.936800000000000     -0.000300000000000     -0.565300000000000
H      13.194000000000001      0.262300000000000      1.021900000000000
H      -6.822700000000000      3.253700000000000      0.098400000000000
H      -7.749300000000000      2.848300000000000     -1.342900000000000
H      -9.859500000000001      3.574500000000000     -0.171300000000000
H      -8.897800000000000      4.037500000000000      1.234500000000000
H      -9.374800000000000      6.001400000000000     -0.197500000000000
H      -7.632200000000000      5.680300000000000     -0.176700000000000
H      -8.605700000000001      5.212400000000000     -1.585000000000000
