82

O       2.740100000000000     -0.685300000000000     -2.270900000000000
O      -4.756500000000000     -1.645600000000000     -2.240600000000000
C      -1.370700000000000      3.967100000000000      1.827300000000000
C       1.529500000000000     -1.161300000000000      2.285500000000000
C      -0.226100000000000      3.837700000000000      0.818400000000000
C      -2.393000000000000      2.825900000000000      1.822000000000000
C       2.849500000000000     -0.981900000000000      3.044500000000000
C       1.297300000000000     -2.592700000000000      1.797800000000000
C       0.665500000000000      2.617600000000000      1.065100000000000
C      -3.040700000000000      2.596200000000000      0.454900000000000
C       4.111500000000000     -1.454600000000000      2.316000000000000
C      -0.132800000000000     -2.856300000000000      1.316800000000000
C       1.827500000000000      2.533200000000000      0.069000000000000
C      -4.192100000000000      1.592200000000000      0.544200000000000
C       4.357100000000000     -0.733500000000000      0.988900000000000
C      -0.595700000000000     -1.911700000000000      0.205000000000000
C       1.394000000000000      1.994700000000000     -1.297500000000000
C      -4.789900000000000      1.315200000000000     -0.837100000000000
C       5.637000000000000     -1.235700000000000      0.319000000000000
C      -1.864900000000000     -2.388900000000000     -0.511300000000000
C       2.464100000000000      2.139400000000000     -2.387500000000000
C      -6.055000000000000      0.450100000000000     -0.798000000000000
C       6.016800000000000     -0.473000000000000     -0.955000000000000
C      -3.054600000000000     -2.618600000000000      0.426500000000000
C       3.809500000000000      1.475500000000000     -2.094200000000000
C      -5.863700000000000     -0.946800000000000     -0.210900000000000
C       5.125100000000000     -0.761200000000000     -2.161200000000000
C      -4.320400000000000     -3.015900000000000     -0.328300000000000
C       3.785900000000000     -0.043600000000000     -2.167200000000000
C      -4.954600000000000     -1.838100000000000     -1.041200000000000
H      -0.952000000000000      4.057000000000000      2.837300000000000
H      -1.897500000000000      4.909000000000000      1.628500000000000
H       0.711100000000000     -0.864600000000000      2.953100000000000
H       1.501800000000000     -0.471200000000000      1.435300000000000
H       0.389600000000000      4.743500000000000      0.887800000000000
H      -0.630100000000000      3.824200000000000     -0.198700000000000
H      -1.922700000000000      1.898100000000000      2.168000000000000
H      -3.172100000000000      3.067500000000000      2.556000000000000
H       2.960000000000000      0.078600000000000      3.303000000000000
H       2.781800000000000     -1.524400000000000      3.995900000000000
H       1.519100000000000     -3.296800000000000      2.609200000000000
H       1.990800000000000     -2.822600000000000      0.980300000000000
H       1.080800000000000      2.687500000000000      2.078100000000000
H       0.081300000000000      1.692100000000000      1.023000000000000
H      -3.416400000000000      3.547600000000000      0.059300000000000
H      -2.292500000000000      2.220200000000000     -0.252500000000000
H       4.969800000000000     -1.286500000000000      2.978700000000000
H       4.062300000000000     -2.536800000000000      2.148300000000000
H      -0.186300000000000     -3.893500000000000      0.963800000000000
H      -0.812900000000000     -2.776300000000000      2.173300000000000
H       2.582200000000000      1.860600000000000      0.490800000000000
H       2.299500000000000      3.516800000000000     -0.038600000000000
H      -4.968800000000000      1.983900000000000      1.211800000000000
H      -3.820200000000000      0.661800000000000      0.985800000000000
H       4.432800000000000      0.344900000000000      1.168700000000000
H       3.506500000000000     -0.900100000000000      0.324300000000000
H       0.199300000000000     -1.806500000000000     -0.543500000000000
H      -0.775200000000000     -0.912800000000000      0.620600000000000
H       0.502000000000000      2.528800000000000     -1.643800000000000
H       1.097900000000000      0.944900000000000     -1.192600000000000
H      -5.049500000000000      2.269200000000000     -1.313100000000000
H      -4.032400000000000      0.846700000000000     -1.476100000000000
H       5.544900000000000     -2.305600000000000      0.095600000000000
H       6.467400000000000     -1.135900000000000      1.029600000000000
H      -1.644500000000000     -3.318400000000000     -1.050800000000000
H      -2.127000000000000     -1.640400000000000     -1.268300000000000
H       2.058300000000000      1.744600000000000     -3.327200000000000
H       2.640800000000000      3.209900000000000     -2.552300000000000
H      -6.448900000000000      0.366700000000000     -1.818500000000000
H      -6.821600000000000      0.972100000000000     -0.212000000000000
H       6.072000000000000      0.599900000000000     -0.743900000000000
H       7.035500000000000     -0.782500000000000     -1.223000000000000
H      -2.814200000000000     -3.429100000000000      1.123900000000000
H      -3.229500000000000     -1.718800000000000      1.026100000000000
H       4.188700000000000      1.783600000000000     -1.117100000000000
H       4.525600000000000      1.816300000000000     -2.851700000000000
H      -6.835600000000000     -1.450700000000000     -0.155500000000000
H      -5.475300000000000     -0.881100000000000      0.809400000000000
H       4.944300000000000     -1.838900000000000     -2.249200000000000
H       5.644600000000000     -0.454800000000000     -3.077300000000000
H      -5.062300000000000     -3.423700000000000      0.368100000000000
H      -4.114000000000000     -3.803900000000000     -1.061500000000000
