82

O      -4.866900000000000     -0.800600000000000      1.872800000000000
O      -2.765200000000000      1.912200000000000      1.616900000000000
C      -3.034100000000000     -0.189300000000000      0.441200000000000
C      -1.707600000000000     -0.614300000000000      1.061100000000000
C      -0.521700000000000     -0.133900000000000      0.223600000000000
C       0.835600000000000     -0.547700000000000      0.801000000000000
C       2.020600000000000     -0.087200000000000     -0.051200000000000
C      -4.137400000000000     -1.117200000000000      0.931800000000000
C      -3.341200000000000      1.281700000000000      0.730100000000000
C       3.380900000000000     -0.432200000000000      0.564400000000000
C      -4.263800000000000     -2.473900000000000      0.249300000000000
C      -4.409200000000000      1.939000000000000     -0.130400000000000
C      -5.723300000000000     -2.924400000000000      0.158200000000000
C      -5.531300000000000      2.524000000000000      0.724700000000000
C      -6.503400000000000     -2.116700000000000     -0.888100000000000
C      -6.634400000000000      3.221600000000000     -0.083600000000000
C      -7.983700000000000     -1.994100000000000     -0.518400000000000
C      -7.263800000000000      2.395600000000000     -1.211000000000000
C      -8.818000000000000     -1.184600000000000     -1.519200000000000
C      -7.927200000000000      1.100500000000000     -0.732800000000000
C      -8.258500000000000      0.186500000000000     -1.916900000000000
C       4.606600000000000     -0.050800000000000     -0.271700000000000
C       5.935800000000000     -0.396600000000000      0.402500000000000
C       7.123900000000000      0.035300000000000     -0.461000000000000
C       8.452500000000001     -0.281300000000000      0.228500000000000
C       9.677800000000000      0.110200000000000     -0.602400000000000
C      11.038000000000000     -0.163900000000000      0.047500000000000
C      12.261799999999999      0.290700000000000     -0.753500000000000
C      13.584800000000000      0.064700000000000     -0.021400000000000
C      14.772200000000000      0.446700000000000     -0.891900000000000
H      -2.981400000000000     -0.287300000000000     -0.650500000000000
H      -1.612700000000000     -0.245300000000000      2.089800000000000
H      -1.653600000000000     -1.708300000000000      1.129700000000000
H      -0.549200000000000      0.958700000000000      0.134000000000000
H      -0.609600000000000     -0.536700000000000     -0.793300000000000
H       0.934700000000000     -0.132000000000000      1.811300000000000
H       0.868900000000000     -1.639400000000000      0.902800000000000
H       1.948800000000000     -0.545700000000000     -1.045000000000000
H       1.963200000000000      0.998300000000000     -0.198300000000000
H       3.455800000000000      0.058600000000000      1.543200000000000
H       3.414600000000000     -1.512000000000000      0.757500000000000
H      -3.685100000000000     -3.191500000000000      0.840600000000000
H      -3.823700000000000     -2.428500000000000     -0.752300000000000
H      -4.804200000000000      1.189600000000000     -0.822700000000000
H      -3.924300000000000      2.716100000000000     -0.731100000000000
H      -6.197300000000000     -2.841500000000000      1.143400000000000
H      -5.758500000000000     -3.985100000000000     -0.117700000000000
H      -5.110300000000000      3.254200000000000      1.427800000000000
H      -5.968800000000000      1.737500000000000      1.350300000000000
H      -6.063300000000000     -1.120200000000000     -0.984800000000000
H      -6.401400000000000     -2.597700000000000     -1.868400000000000
H      -7.422300000000000      3.543600000000000      0.608200000000000
H      -6.217400000000000      4.136300000000000     -0.523600000000000
H      -8.420800000000000     -2.996700000000000     -0.431400000000000
H      -8.074500000000000     -1.534700000000000      0.473600000000000
H      -8.016999999999999      3.011700000000000     -1.718100000000000
H      -6.499700000000000      2.174200000000000     -1.965100000000000
H      -8.943600000000000     -1.778700000000000     -2.433100000000000
H      -9.823000000000000     -1.050600000000000     -1.100100000000000
H      -7.260500000000000      0.579700000000000     -0.042700000000000
H      -8.840999999999999      1.336200000000000     -0.174900000000000
H      -7.361700000000000      0.039000000000000     -2.531000000000000
H      -8.989599999999999      0.686900000000000     -2.564100000000000
H       4.548000000000000     -0.558300000000000     -1.242300000000000
H       4.573000000000000      1.026600000000000     -0.475800000000000
H       5.989900000000000      0.100600000000000      1.378400000000000
H       5.984000000000000     -1.476600000000000      0.586000000000000
H       7.064600000000000      1.111900000000000     -0.661400000000000
H       7.081300000000000     -0.477600000000000     -1.429400000000000
H       8.501899999999999     -1.354900000000000      0.448400000000000
H       8.494000000000000      0.241100000000000      1.192300000000000
H       9.613799999999999      1.180800000000000     -0.835200000000000
H       9.637900000000000     -0.417200000000000     -1.563800000000000
H      11.122500000000000     -1.239900000000000      0.245100000000000
H      11.058500000000000      0.331900000000000      1.026400000000000
H      12.159500000000000      1.356700000000000     -0.991300000000000
H      12.275399999999999     -0.246300000000000     -1.710000000000000
H      13.675000000000001     -0.989500000000000      0.265100000000000
H      13.604100000000001      0.655300000000000      0.901600000000000
H      14.726599999999999      1.503100000000000     -1.175600000000000
H      15.708200000000000      0.280600000000000     -0.349600000000000
H      14.798299999999999     -0.154400000000000     -1.806400000000000
