82

O      -5.247200000000000      1.278500000000000      0.300400000000000
O      -4.496100000000000      2.446200000000000     -1.546000000000000
C       1.389100000000000      1.234000000000000      0.403200000000000
C      -0.012200000000000      1.404700000000000     -0.179900000000000
C       2.263000000000000      2.451800000000000      0.077300000000000
C       2.037800000000000     -0.056100000000000     -0.114300000000000
C       4.334700000000000      0.993700000000000      0.088600000000000
C      -0.898700000000000      0.204900000000000      0.180400000000000
C      -0.644600000000000      2.716200000000000      0.304700000000000
C       3.686100000000000      2.283500000000000      0.606600000000000
C       3.461100000000000     -0.224300000000000      0.414700000000000
C      -2.320600000000000      0.375500000000000     -0.350000000000000
C      -2.067200000000000      2.886100000000000     -0.224200000000000
C      -2.945100000000000      1.685500000000000      0.129900000000000
C       5.736800000000000      0.823400000000000      0.670400000000000
C       6.584600000000000     -0.105800000000000     -0.193400000000000
C      -4.297500000000000      1.862100000000000     -0.489400000000000
C       7.998400000000000     -0.248600000000000      0.375400000000000
C       8.839499999999999     -1.210000000000000     -0.467300000000000
C      -6.587700000000000      1.373200000000000     -0.173400000000000
C      10.243300000000000     -1.446300000000000      0.097200000000000
C      -7.373700000000000      0.144400000000000      0.293600000000000
C      -7.207300000000000      2.658700000000000      0.358200000000000
C      11.057700000000001     -2.463000000000000     -0.703700000000000
C      -6.758500000000000     -1.163700000000000     -0.218600000000000
C      -7.543500000000000     -2.377600000000000      0.284700000000000
C      12.445800000000000     -2.652300000000000     -0.110800000000000
C      -6.954700000000000     -3.715400000000000     -0.172100000000000
C      -7.694700000000000     -4.929400000000000      0.390700000000000
C      -7.028700000000000     -6.229800000000000     -0.032800000000000
H       1.312200000000000      1.158400000000000      1.497400000000000
H       0.062100000000000      1.452600000000000     -1.275900000000000
H       1.870000000000000      3.362700000000000      0.538600000000000
H       2.293900000000000      2.618900000000000     -1.006700000000000
H       2.054500000000000     -0.059000000000000     -1.211500000000000
H       1.479400000000000     -0.941100000000000      0.205000000000000
H       4.409500000000000      1.083800000000000     -1.004100000000000
H      -0.513100000000000     -0.723000000000000     -0.252200000000000
H      -0.930000000000000      0.069700000000000      1.268800000000000
H      -0.656800000000000      2.749800000000000      1.401500000000000
H      -0.081000000000000      3.586900000000000     -0.043700000000000
H       3.666600000000000      2.275800000000000      1.704100000000000
H       4.285100000000000      3.151500000000000      0.305800000000000
H       3.423900000000000     -0.379100000000000      1.500800000000000
H       3.888500000000000     -1.134200000000000     -0.020400000000000
H      -2.307200000000000      0.344700000000000     -1.447600000000000
H      -2.935400000000000     -0.473700000000000     -0.026900000000000
H      -2.503900000000000      3.805300000000000      0.185800000000000
H      -2.023100000000000      3.023500000000000     -1.312800000000000
H      -3.060500000000000      1.663400000000000      1.221900000000000
H       5.687400000000000      0.451000000000000      1.701000000000000
H       6.237500000000000      1.799300000000000      0.713700000000000
H       6.122400000000000     -1.097300000000000     -0.252100000000000
H       6.643200000000000      0.285300000000000     -1.216500000000000
H       7.943300000000000     -0.620300000000000      1.405800000000000
H       8.487600000000000      0.732100000000000      0.410200000000000
H       8.923200000000000     -0.820500000000000     -1.489400000000000
H       8.320399999999999     -2.174100000000000     -0.538000000000000
H      -6.614200000000000      1.387300000000000     -1.270800000000000
H      10.158099999999999     -1.793000000000000      1.134800000000000
H      10.781000000000001     -0.490400000000000      0.126900000000000
H      -7.383200000000000      0.116100000000000      1.390800000000000
H      -8.414999999999999      0.219600000000000     -0.042100000000000
H      -7.175100000000000      2.684900000000000      1.453000000000000
H      -8.248100000000001      2.760600000000000      0.036000000000000
H      -6.650400000000000      3.533900000000000      0.007100000000000
H      11.151000000000000     -2.127000000000000     -1.742800000000000
H      10.536199999999999     -3.426900000000000     -0.719200000000000
H      -5.718000000000000     -1.247400000000000      0.115900000000000
H      -6.747400000000000     -1.161600000000000     -1.315100000000000
H      -7.571100000000000     -2.357200000000000      1.381300000000000
H      -8.582900000000000     -2.307600000000000     -0.059300000000000
H      13.004099999999999     -1.710600000000000     -0.110600000000000
H      13.011699999999999     -3.382600000000000     -0.697500000000000
H      12.385899999999999     -3.017100000000000      0.919600000000000
H      -6.965400000000000     -3.757900000000000     -1.268300000000000
H      -5.902400000000000     -3.762500000000000      0.135300000000000
H      -7.715700000000000     -4.877100000000000      1.485300000000000
H      -8.734600000000000     -4.922500000000000      0.044800000000000
H      -7.574200000000000     -7.085500000000000      0.377100000000000
H      -7.014800000000000     -6.326200000000000     -1.123100000000000
H      -5.997100000000000     -6.279100000000000      0.330200000000000
