82

O      -4.363800000000000      3.051900000000000     -0.306300000000000
O      -2.256000000000000      2.139500000000000     -0.077700000000000
C       3.332400000000000     -3.054200000000000     -0.269600000000000
C       4.518100000000000     -3.315800000000000      0.661700000000000
C       2.030200000000000     -3.553900000000000      0.361500000000000
C       5.870900000000000     -2.948200000000000      0.047600000000000
C       0.852100000000000     -3.465900000000000     -0.610600000000000
C       6.094400000000000     -1.458700000000000     -0.232000000000000
C      -0.421700000000000     -4.031000000000000      0.024400000000000
C       5.939900000000000     -0.584400000000000      1.014000000000000
C      -1.568600000000000     -4.118900000000000     -0.986100000000000
C       6.567000000000000      0.803900000000000      0.866900000000000
C      -2.792100000000000     -4.849600000000000     -0.422200000000000
C       6.046800000000000      1.657400000000000     -0.291300000000000
C      -3.597100000000000     -4.055900000000000      0.611800000000000
C       4.540000000000000      1.919800000000000     -0.231700000000000
C      -4.468000000000000     -2.972300000000000     -0.030700000000000
C       4.143400000000000      3.026000000000000     -1.212500000000000
C      -5.320500000000000     -2.244200000000000      1.012600000000000
C       2.633700000000000      3.245300000000000     -1.338400000000000
C      -6.454300000000000     -1.419300000000000      0.394600000000000
C       1.929800000000000      3.484100000000000     -0.001400000000000
C      -6.022300000000000     -0.332200000000000     -0.591300000000000
C       0.519100000000000      4.041300000000000     -0.206200000000000
C      -5.262100000000000      0.816500000000000      0.069200000000000
C      -0.269200000000000      4.048900000000000      1.104400000000000
C      -4.875600000000000      1.876000000000000     -0.958200000000000
C      -1.548400000000000      4.824500000000000      0.991100000000000
C      -2.749700000000000      4.411000000000000      0.565500000000000
C      -3.048500000000000      3.058200000000000      0.040900000000000
H       3.244300000000000     -1.983300000000000     -0.484700000000000
H       3.500500000000000     -3.566900000000000     -1.224200000000000
H       4.544500000000000     -4.385200000000000      0.907500000000000
H       4.372700000000000     -2.788300000000000      1.611100000000000
H       2.156600000000000     -4.597000000000000      0.677400000000000
H       1.811400000000000     -2.969600000000000      1.263600000000000
H       6.006100000000000     -3.505000000000000     -0.887900000000000
H       6.659900000000000     -3.296000000000000      0.726600000000000
H       1.091000000000000     -4.030100000000000     -1.520300000000000
H       0.687800000000000     -2.423500000000000     -0.908200000000000
H       7.108200000000000     -1.343100000000000     -0.635400000000000
H       5.407200000000000     -1.119800000000000     -1.015100000000000
H      -0.214300000000000     -5.032600000000000      0.420900000000000
H      -0.711200000000000     -3.401900000000000      0.873500000000000
H       6.421900000000000     -1.077800000000000      1.867300000000000
H       4.879100000000000     -0.485000000000000      1.270700000000000
H      -1.839100000000000     -3.118100000000000     -1.339200000000000
H      -1.220400000000000     -4.677800000000000     -1.863900000000000
H       7.652300000000000      0.690900000000000      0.750700000000000
H       6.416800000000000      1.351300000000000      1.806000000000000
H      -3.451500000000000     -5.128600000000000     -1.253500000000000
H      -2.463400000000000     -5.791100000000000      0.035300000000000
H       6.301200000000000      1.189200000000000     -1.249400000000000
H       6.582700000000000      2.614800000000000     -0.264900000000000
H      -4.252600000000000     -4.760100000000000      1.139800000000000
H      -2.938800000000000     -3.615500000000000      1.367900000000000
H       4.263900000000000      2.214500000000000      0.787100000000000
H       3.991600000000000      1.001300000000000     -0.469400000000000
H      -5.122100000000000     -3.436100000000000     -0.779000000000000
H      -3.835100000000000     -2.248300000000000     -0.554600000000000
H       4.613900000000000      3.967000000000000     -0.900400000000000
H       4.540400000000000      2.793300000000000     -2.208400000000000
H      -5.775900000000000     -2.979300000000000      1.688100000000000
H      -4.680100000000000     -1.608600000000000      1.634500000000000
H       2.180300000000000      2.376900000000000     -1.832300000000000
H       2.470500000000000      4.103700000000000     -2.001800000000000
H      -7.136000000000000     -2.103300000000000     -0.126900000000000
H      -7.038600000000000     -0.962700000000000      1.203100000000000
H       2.507700000000000      4.190000000000000      0.607300000000000
H       1.875900000000000      2.540700000000000      0.554800000000000
H      -5.424200000000000     -0.765100000000000     -1.400800000000000
H      -6.926900000000000      0.072800000000000     -1.063000000000000
H      -0.013100000000000      3.439200000000000     -0.952500000000000
H       0.591600000000000      5.058600000000000     -0.611600000000000
H      -5.876800000000000      1.274400000000000      0.853800000000000
H      -4.358400000000000      0.448800000000000      0.567200000000000
H       0.333200000000000      4.512600000000000      1.896200000000000
H      -0.459900000000000      3.024400000000000      1.442800000000000
H      -5.755900000000000      2.195100000000000     -1.526500000000000
H      -4.145400000000000      1.490300000000000     -1.679700000000000
H      -1.479100000000000      5.862500000000000      1.314800000000000
H      -3.569500000000000      5.125400000000000      0.570200000000000
