83

O       1.968100000000000     -2.283400000000000     -0.017700000000000
N      -6.700800000000000      3.112500000000000     -1.896700000000000
C      -4.108700000000000     -0.754200000000000     -0.897200000000000
C      -4.656600000000000      0.642700000000000     -0.917700000000000
C      -4.201900000000000     -0.003800000000000     -2.193300000000000
C      -2.755600000000000     -1.001500000000000     -0.289200000000000
C      -2.738200000000000     -1.285900000000000      1.231000000000000
C      -1.281700000000000     -1.418700000000000      1.807500000000000
C      -0.171800000000000     -2.347700000000000      1.200500000000000
C      -6.107600000000000      0.853200000000000     -0.691200000000000
C      -3.573400000000000     -2.543300000000000      1.554500000000000
C      -3.387900000000000     -0.104700000000000      2.000000000000000
C       0.661300000000000     -1.695500000000000      0.040800000000000
C       0.856000000000000     -0.169600000000000      0.142300000000000
C      -0.767000000000000     -3.684400000000000      0.715000000000000
C       0.786300000000000     -2.701300000000000      2.374200000000000
C       1.916400000000000      0.202200000000000      1.197400000000000
C       2.242500000000000      1.731000000000000      1.336200000000000
C      -6.439400000000000      2.114800000000000     -1.364700000000000
C       2.664600000000000      2.285400000000000     -0.064400000000000
C       3.434200000000000      3.629000000000000     -0.269400000000000
C       3.360200000000000      1.839700000000000      2.386800000000000
C       0.992300000000000      2.453900000000000      1.876700000000000
C       2.508100000000000     -2.194400000000000     -1.324200000000000
C       3.537500000000000      3.857700000000000     -1.799300000000000
C       4.875800000000000      3.562700000000000      0.267300000000000
C       2.718200000000000      4.844100000000000      0.330900000000000
C       3.890600000000000     -2.831000000000000     -1.329400000000000
C       4.540500000000000     -2.755700000000000     -2.708100000000000
C       5.938200000000000     -3.354000000000000     -2.698600000000000
H      -4.786600000000000     -1.589700000000000     -0.776200000000000
H      -4.042200000000000      1.436500000000000     -0.506700000000000
H      -4.947100000000000     -0.330400000000000     -2.909000000000000
H      -3.290000000000000      0.366300000000000     -2.646800000000000
H      -2.313800000000000     -1.834500000000000     -0.841200000000000
H      -2.112300000000000     -0.136700000000000     -0.491600000000000
H      -0.872700000000000     -0.416500000000000      1.970900000000000
H      -1.432100000000000     -1.767900000000000      2.842400000000000
H      -6.315500000000000      0.927800000000000      0.380900000000000
H      -6.715100000000000      0.034700000000000     -1.092600000000000
H      -3.393700000000000     -2.894800000000000      2.576400000000000
H      -4.647500000000000     -2.336900000000000      1.477400000000000
H      -3.373700000000000     -3.368600000000000      0.867600000000000
H      -3.302700000000000     -0.248000000000000      3.083800000000000
H      -4.454800000000000     -0.006600000000000      1.779200000000000
H      -2.900200000000000      0.844600000000000      1.751500000000000
H       0.121300000000000     -1.891300000000000     -0.895700000000000
H       1.202400000000000      0.187400000000000     -0.833000000000000
H      -0.080700000000000      0.364500000000000      0.301700000000000
H      -1.334300000000000     -4.184400000000000      1.506800000000000
H       0.036600000000000     -4.373400000000000      0.425700000000000
H      -1.401200000000000     -3.577300000000000     -0.165900000000000
H       0.254300000000000     -3.309000000000000      3.118900000000000
H       1.640500000000000     -3.309400000000000      2.059000000000000
H       1.158200000000000     -1.838000000000000      2.921800000000000
H       1.577000000000000     -0.122900000000000      2.179400000000000
H       2.856500000000000     -0.323300000000000      0.991200000000000
H       3.275800000000000      1.507400000000000     -0.546500000000000
H       1.751400000000000      2.349900000000000     -0.673400000000000
H       4.300500000000000      1.416600000000000      2.019000000000000
H       3.094900000000000      1.290600000000000      3.298700000000000
H       3.526000000000000      2.874800000000000      2.697100000000000
H       0.196400000000000      2.502300000000000      1.126500000000000
H       1.211300000000000      3.478000000000000      2.188100000000000
H       0.587700000000000      1.938600000000000      2.755700000000000
H       1.858700000000000     -2.725400000000000     -2.030400000000000
H       2.599700000000000     -1.152500000000000     -1.645100000000000
H       4.079000000000000      4.782000000000000     -2.031500000000000
H       4.066900000000000      3.031900000000000     -2.288400000000000
H       2.543900000000000      3.936000000000000     -2.255500000000000
H       5.364900000000000      2.624700000000000     -0.017000000000000
H       5.481400000000000      4.380700000000000     -0.142400000000000
H       4.932700000000000      3.668600000000000      1.351700000000000
H       1.669600000000000      4.881700000000000      0.016600000000000
H       3.192700000000000      5.780000000000000      0.013200000000000
H       2.750600000000000      4.831700000000000      1.423900000000000
H       4.521600000000000     -2.329000000000000     -0.584900000000000
H       3.813100000000000     -3.875100000000000     -1.001400000000000
H       4.601200000000000     -1.711300000000000     -3.035600000000000
H       3.923900000000000     -3.290100000000000     -3.440100000000000
H       5.911500000000000     -4.408000000000000     -2.404100000000000
H       6.384300000000000     -3.290900000000000     -3.696000000000000
H       6.589600000000000     -2.818200000000000     -2.000700000000000
