83

O      -5.851100000000000     -1.072400000000000      0.951200000000000
N      -6.339700000000000     -0.251400000000000     -1.141900000000000
C      -3.112700000000000     -0.396500000000000     -0.013600000000000
C      -4.333600000000000      0.549500000000000     -0.012600000000000
C      -3.177000000000000     -1.262200000000000      1.267600000000000
C      -3.092500000000000     -1.211400000000000     -1.329100000000000
C      -1.843900000000000      0.483400000000000      0.022600000000000
C      -4.209900000000000      1.430500000000000      1.245200000000000
C      -4.213400000000000      1.373100000000000     -1.309200000000000
C      -2.333900000000000     -2.538000000000000      1.250100000000000
C      -4.002000000000000     -2.440500000000000     -1.363100000000000
C      -5.455400000000000      2.176000000000000      1.719800000000000
C      -5.314500000000000      2.391000000000000     -1.590600000000000
C      -5.581700000000000     -0.340900000000000      0.001600000000000
C      -0.576500000000000     -0.365200000000000      0.135200000000000
C      -3.089300000000000     -3.734000000000000      0.672400000000000
C      -3.311100000000000     -3.697300000000000     -0.835800000000000
C      -6.246400000000000      2.989900000000000      0.698900000000000
C      -5.478600000000000      3.472100000000000     -0.525000000000000
C       0.678200000000000      0.510800000000000      0.131600000000000
C       1.981700000000000     -0.292200000000000      0.170000000000000
C       3.236400000000000      0.580300000000000      0.091800000000000
C       4.507200000000000     -0.274100000000000      0.111200000000000
C       5.761000000000000      0.595600000000000     -0.005800000000000
C       7.064600000000000     -0.207800000000000      0.020600000000000
C       8.319400000000000      0.664700000000000     -0.071700000000000
C       9.589499999999999     -0.189500000000000     -0.029100000000000
C      10.879400000000000      0.633800000000000     -0.087800000000000
C      12.148199999999999     -0.217000000000000     -0.019900000000000
C      13.397800000000000      0.639900000000000     -0.154700000000000
H      -4.121700000000000     -1.554000000000000      1.697100000000000
H      -2.719000000000000     -0.679300000000000      2.080000000000000
H      -2.090900000000000     -1.611500000000000     -1.502300000000000
H      -3.221100000000000     -0.653200000000000     -2.251700000000000
H      -1.711800000000000      1.066700000000000     -0.892000000000000
H      -1.808900000000000      1.176300000000000      0.866200000000000
H      -3.461200000000000      2.215500000000000      1.084400000000000
H      -3.888200000000000      0.884800000000000      2.133400000000000
H      -4.189600000000000      0.806700000000000     -2.236300000000000
H      -3.307900000000000      1.985400000000000     -1.308700000000000
H      -2.081300000000000     -2.785800000000000      2.290000000000000
H      -1.391000000000000     -2.501700000000000      0.715100000000000
H      -4.231100000000000     -2.634300000000000     -2.420300000000000
H      -4.967900000000000     -2.361700000000000     -0.881600000000000
H      -6.141900000000000      1.470900000000000      2.205700000000000
H      -5.139000000000000      2.859100000000000      2.520300000000000
H      -5.024900000000000      2.909400000000000     -2.516800000000000
H      -6.296300000000000      1.975700000000000     -1.822000000000000
H      -0.533600000000000     -0.846500000000000      1.114300000000000
H      -0.455700000000000     -1.102200000000000     -0.658400000000000
H      -4.058500000000000     -3.834400000000000      1.177100000000000
H      -2.530000000000000     -4.647600000000000      0.911100000000000
H      -2.350300000000000     -3.836600000000000     -1.347200000000000
H      -3.921500000000000     -4.567600000000000     -1.109000000000000
H      -6.665100000000000      3.862000000000000      1.217600000000000
H      -7.115000000000000      2.404100000000000      0.372300000000000
H      -6.057400000000000      4.289000000000000     -0.975800000000000
H      -4.512400000000000      3.905500000000000     -0.243300000000000
H       0.652200000000000      1.197800000000000      0.986800000000000
H       0.678200000000000      1.133300000000000     -0.772200000000000
H      -6.013100000000000      0.070800000000000     -2.042800000000000
H      -7.212500000000000     -0.768400000000000     -1.189900000000000
H       2.009100000000000     -0.887200000000000      1.091300000000000
H       1.988000000000000     -1.003100000000000     -0.665700000000000
H       3.248700000000000      1.281800000000000      0.934500000000000
H       3.208300000000000      1.177900000000000     -0.827300000000000
H       4.547500000000000     -0.853900000000000      1.041100000000000
H       4.483600000000000     -0.991900000000000     -0.717700000000000
H       5.716200000000000      1.172900000000000     -0.937600000000000
H       5.773300000000000      1.322200000000000      0.816200000000000
H       7.059600000000000     -0.924500000000000     -0.810000000000000
H       7.101600000000000     -0.796200000000000      0.945900000000000
H       8.330100000000000      1.380700000000000      0.758700000000000
H       8.297300000000000      1.245800000000000     -1.001200000000000
H       9.577800000000000     -0.897700000000000     -0.866800000000000
H       9.591500000000000     -0.787500000000000      0.890800000000000
H      10.884300000000000      1.354600000000000      0.739300000000000
H      10.883900000000001      1.218500000000000     -1.016200000000000
H      12.179800000000000     -0.760700000000000      0.931200000000000
H      12.137000000000000     -0.964500000000000     -0.821600000000000
H      13.409800000000001      1.168700000000000     -1.113100000000000
H      13.453099999999999      1.381600000000000      0.648400000000000
H      14.293799999999999      0.013600000000000     -0.101300000000000
