83

N       4.419100000000000      0.400400000000000      1.534500000000000
N      -4.418200000000000      0.400200000000000     -1.535200000000000
C       0.005100000000000      1.401900000000000     -0.001800000000000
C       1.228200000000000      0.521100000000000     -0.254500000000000
C      -1.227000000000000      0.518100000000000      0.253800000000000
C       1.507100000000000     -0.374400000000000      0.954800000000000
C       2.453200000000000      1.379100000000000     -0.578900000000000
C      -1.507600000000000     -0.378700000000000     -0.954300000000000
C      -2.450600000000000      1.378600000000000      0.576800000000000
C       2.743500000000000     -1.263300000000000      0.738800000000000
C       3.706700000000000      0.522000000000000     -0.823000000000000
C      -2.745400000000000     -1.265200000000000     -0.737000000000000
C      -3.705600000000000      0.523900000000000      0.822200000000000
C       3.987700000000000     -0.405700000000000      0.388100000000000
C      -3.988000000000000     -0.405000000000000     -0.387500000000000
C      -0.255800000000000      2.291600000000000     -1.228600000000000
C       0.252500000000000      2.293200000000000      1.226700000000000
C       2.958900000000000     -2.132900000000000      1.983500000000000
C       4.894300000000000      1.440500000000000     -1.137100000000000
C      -2.962200000000000     -2.136300000000000     -1.980500000000000
C      -4.891600000000000      1.444900000000000      1.134900000000000
C       4.200000000000000     -3.002400000000000      1.814800000000000
C       1.727300000000000     -2.991500000000000      2.249900000000000
C       6.159700000000000      0.617000000000000     -1.349200000000000
C       4.592600000000000      2.297000000000000     -2.362000000000000
C      -4.204800000000000     -3.003400000000000     -1.810500000000000
C      -1.732100000000000     -2.997300000000000     -2.245700000000000
C      -4.588600000000000      2.302700000000000      2.358600000000000
C      -6.158400000000000      0.623800000000000      1.348300000000000
H       1.083200000000000     -0.113500000000000     -1.135900000000000
H      -1.082000000000000     -0.114800000000000      1.136300000000000
H       0.654000000000000     -1.038000000000000      1.093100000000000
H       1.628100000000000      0.198500000000000      1.878800000000000
H       2.685000000000000      2.113900000000000      0.194200000000000
H       2.241800000000000      1.933300000000000     -1.495700000000000
H      -0.654200000000000     -1.040700000000000     -1.096800000000000
H      -1.636300000000000      0.196700000000000     -1.876100000000000
H      -2.238000000000000      1.927900000000000      1.496500000000000
H      -2.679300000000000      2.120300000000000     -0.189700000000000
H       2.543600000000000     -1.918800000000000     -0.121500000000000
H       3.515000000000000     -0.121400000000000     -1.694100000000000
H      -2.546300000000000     -1.919800000000000      0.124200000000000
H      -3.515100000000000     -0.118600000000000      1.694300000000000
H       4.802300000000000     -1.082200000000000      0.112900000000000
H      -4.800700000000000     -1.085500000000000     -0.116600000000000
H       0.492300000000000      3.091500000000000     -1.294300000000000
H      -0.198600000000000      1.737400000000000     -2.171300000000000
H      -1.204600000000000      2.828600000000000     -1.213500000000000
H       0.187700000000000      1.740200000000000      2.169700000000000
H       1.202900000000000      2.828000000000000      1.218400000000000
H      -0.494900000000000      3.094400000000000      1.284500000000000
H       3.104700000000000     -1.510900000000000      2.875400000000000
H       5.083900000000000      2.131800000000000     -0.305900000000000
H      -3.114300000000000     -1.510300000000000     -2.869100000000000
H      -5.078900000000000      2.144800000000000      0.311200000000000
H       4.719900000000000     -0.196600000000000      2.301400000000000
H       3.653500000000000      0.967500000000000      1.891600000000000
H      -3.741500000000000      1.127900000000000     -1.751500000000000
H      -5.304300000000000      0.862900000000000     -1.350200000000000
H       4.280700000000000     -3.721200000000000      2.638400000000000
H       5.125500000000000     -2.420200000000000      1.827300000000000
H       4.163700000000000     -3.575400000000000      0.881800000000000
H       0.894700000000000     -2.406700000000000      2.652700000000000
H       1.947100000000000     -3.756800000000000      3.003300000000000
H       1.389500000000000     -3.510000000000000      1.346100000000000
H       6.003000000000000     -0.178000000000000     -2.086500000000000
H       6.974400000000000      1.250800000000000     -1.717900000000000
H       6.522500000000000      0.164500000000000     -0.421800000000000
H       4.216200000000000      1.695000000000000     -3.196000000000000
H       5.499300000000000      2.806200000000000     -2.708700000000000
H       3.869300000000000      3.088600000000000     -2.144500000000000
H      -5.126900000000000     -2.415300000000000     -1.831300000000000
H      -4.285200000000000     -3.726700000000000     -2.630000000000000
H      -4.174300000000000     -3.570000000000000     -0.873500000000000
H      -0.899000000000000     -2.414400000000000     -2.650100000000000
H      -1.953400000000000     -3.763700000000000     -2.997600000000000
H      -1.394600000000000     -3.514600000000000     -1.341100000000000
H      -3.862900000000000      3.092100000000000      2.140600000000000
H      -5.494200000000000      2.814700000000000      2.704000000000000
H      -4.214400000000000      1.700900000000000      3.193800000000000
H      -6.522900000000000      0.160800000000000      0.427400000000000
H      -6.972800000000000      1.261700000000000      1.710600000000000
H      -6.003800000000000     -0.163800000000000      2.093800000000000
