83

O       0.342200000000000      1.310800000000000     -2.577900000000000
N       0.269100000000000     -0.424200000000000     -0.125500000000000
C       1.217200000000000      0.531100000000000     -0.770700000000000
C       2.645700000000000      0.578000000000000     -0.175900000000000
C       3.047100000000000     -0.863000000000000      0.204600000000000
C       1.183300000000000      0.167600000000000     -2.284600000000000
C       0.612300000000000      1.863000000000000     -1.267200000000000
C       2.075000000000000     -1.445300000000000      1.248000000000000
C       0.691700000000000     -0.787900000000000      1.228300000000000
C       2.731900000000000      1.581600000000000      0.998900000000000
C      -1.140900000000000     -0.042400000000000     -0.126800000000000
C       4.506200000000000     -1.025500000000000      0.668100000000000
C       3.715300000000000      2.737100000000000      0.772200000000000
C       5.534800000000000     -0.721300000000000     -0.426400000000000
C      -1.452100000000000      0.875700000000000      1.075800000000000
C      -2.060500000000000     -1.277000000000000     -0.172600000000000
C       5.189200000000000      2.371600000000000      0.976200000000000
C       6.493000000000000      0.429700000000000     -0.110500000000000
C       5.897300000000000      1.831400000000000     -0.270300000000000
C      -2.871900000000000      1.452600000000000      1.190900000000000
C      -1.816000000000000     -2.186500000000000     -1.382400000000000
C      -3.259900000000000      2.427400000000000      0.078300000000000
C      -2.696600000000000     -3.441500000000000     -1.378000000000000
C      -4.684800000000000      2.974600000000000      0.224700000000000
C      -2.586600000000000     -4.328400000000000     -0.132200000000000
C      -5.801400000000000      1.924500000000000      0.230800000000000
C      -1.182200000000000     -4.839300000000000      0.196900000000000
C      -7.205300000000000      2.525800000000000      0.314100000000000
C      -1.118200000000000     -5.644800000000000      1.485100000000000
C      -8.274900000000001      1.444500000000000      0.308100000000000
H       3.314400000000000      0.923900000000000     -0.969500000000000
H       2.934200000000000     -1.480900000000000     -0.699100000000000
H       0.703600000000000     -0.772700000000000     -2.574600000000000
H       2.134200000000000      0.247300000000000     -2.823500000000000
H       1.336300000000000      2.683000000000000     -1.360700000000000
H      -0.276700000000000      2.297200000000000     -0.813600000000000
H       2.488200000000000     -1.355600000000000      2.260600000000000
H       1.970200000000000     -2.521500000000000      1.056300000000000
H       0.005500000000000     -1.508600000000000      1.688600000000000
H       0.741700000000000      0.075300000000000      1.900600000000000
H       2.991400000000000      1.082800000000000      1.939200000000000
H       1.750500000000000      2.039500000000000      1.171900000000000
H      -1.400300000000000      0.486800000000000     -1.047500000000000
H       4.643400000000000     -2.074800000000000      0.964400000000000
H       4.699300000000000     -0.444400000000000      1.574300000000000
H       3.471100000000000      3.508100000000000      1.515400000000000
H       3.555600000000000      3.202400000000000     -0.207200000000000
H       5.058400000000000     -0.557900000000000     -1.399800000000000
H       6.151500000000000     -1.621700000000000     -0.552000000000000
H      -1.341800000000000      0.310600000000000      2.010700000000000
H      -0.748500000000000      1.712500000000000      1.142900000000000
H      -3.107200000000000     -0.953000000000000     -0.214700000000000
H      -1.955700000000000     -1.842700000000000      0.758300000000000
H       5.308000000000000      1.708600000000000      1.839200000000000
H       5.705200000000000      3.300800000000000      1.255400000000000
H       7.325100000000000      0.351200000000000     -0.823100000000000
H       6.936700000000000      0.302800000000000      0.884000000000000
H       6.740400000000000      2.506900000000000     -0.472000000000000
H       5.268500000000000      1.887200000000000     -1.164400000000000
H      -2.948000000000000      1.978600000000000      2.151700000000000
H      -3.584600000000000      0.624900000000000      1.245600000000000
H      -2.011400000000000     -1.623400000000000     -2.303300000000000
H      -0.765900000000000     -2.494400000000000     -1.425400000000000
H      -2.556200000000000      3.268100000000000      0.068200000000000
H      -3.178000000000000      1.931000000000000     -0.895200000000000
H      -3.744800000000000     -3.140100000000000     -1.496700000000000
H      -2.446000000000000     -4.041400000000000     -2.261600000000000
H      -4.744600000000000      3.561000000000000      1.150200000000000
H      -4.865100000000000      3.677500000000000     -0.598200000000000
H      -3.244900000000000     -5.194900000000000     -0.277100000000000
H      -2.993300000000000     -3.794300000000000      0.734500000000000
H      -5.669200000000000      1.249300000000000      1.083400000000000
H      -5.720600000000000      1.313200000000000     -0.676500000000000
H      -0.489900000000000     -3.996200000000000      0.295300000000000
H      -0.817300000000000     -5.456000000000000     -0.632700000000000
H      -7.299000000000000      3.123100000000000      1.228400000000000
H      -7.369900000000000      3.200900000000000     -0.533500000000000
H      -1.767700000000000     -6.523900000000000      1.428000000000000
H      -1.433800000000000     -5.038800000000000      2.340300000000000
H      -0.095200000000000     -5.987400000000000      1.669200000000000
H      -8.225800000000000      0.849100000000000     -0.609200000000000
H      -8.156499999999999      0.770500000000000      1.162500000000000
H      -9.270099999999999      1.896100000000000      0.367100000000000
