83

O      -5.465600000000000     -0.113900000000000      0.244800000000000
N      -2.150100000000000     -0.534100000000000     -1.342900000000000
C       0.162300000000000     -0.944900000000000     -0.493000000000000
C      -3.161100000000000     -0.193400000000000     -0.329600000000000
C      -1.679600000000000     -1.725700000000000      1.338800000000000
C      -0.214400000000000     -1.366100000000000      0.953200000000000
C      -2.635500000000000     -0.514700000000000      1.115900000000000
C       1.545600000000000     -0.246700000000000     -0.418100000000000
C      -0.832800000000000      0.065900000000000     -1.110900000000000
C      -3.631100000000000      1.280300000000000     -0.375400000000000
C      -4.524000000000000     -0.885700000000000     -0.520600000000000
C      -5.063500000000000      1.267000000000000      0.183300000000000
C       1.458600000000000      1.004600000000000      0.501400000000000
C       0.347900000000000     -2.176000000000000     -1.405100000000000
C       2.599700000000000     -1.257900000000000      0.092800000000000
C      -1.656200000000000     -1.996600000000000      2.871900000000000
C      -2.170000000000000     -3.026200000000000      0.686900000000000
C       2.258400000000000      2.271000000000000      0.051500000000000
C      -2.544900000000000     -0.421300000000000     -2.744300000000000
C      -6.033700000000000      2.000300000000000     -0.747000000000000
C      -5.154600000000000      1.861500000000000      1.588100000000000
C       3.569500000000000     -1.710400000000000     -1.004600000000000
C       3.762200000000000      2.009000000000000     -0.244000000000000
C       1.618400000000000      2.842500000000000     -1.236000000000000
C       2.109300000000000      3.344000000000000      1.151500000000000
C       4.885300000000000     -2.288200000000000     -0.463100000000000
C       4.640900000000000      1.643800000000000      0.960200000000000
C       5.720700000000000     -1.340300000000000      0.413200000000000
C       6.064500000000000      1.207300000000000      0.574200000000000
C       6.173800000000000     -0.055400000000000     -0.293000000000000
H       0.377400000000000     -2.243300000000000      1.240300000000000
H       0.085600000000000     -0.591100000000000      1.665000000000000
H      -3.502400000000000     -0.661200000000000      1.774000000000000
H      -2.126000000000000      0.374400000000000      1.514900000000000
H       1.815200000000000      0.077200000000000     -1.429300000000000
H      -0.956000000000000      0.984500000000000     -0.537200000000000
H      -0.404500000000000      0.409300000000000     -2.064000000000000
H      -2.973500000000000      1.963900000000000      0.173800000000000
H      -3.650100000000000      1.657500000000000     -1.403800000000000
H      -4.888300000000000     -0.866000000000000     -1.551300000000000
H      -4.551600000000000     -1.921900000000000     -0.176600000000000
H       0.437500000000000      1.339000000000000      0.694200000000000
H       1.823200000000000      0.732200000000000      1.501800000000000
H       0.907300000000000     -2.988800000000000     -0.933600000000000
H      -0.609200000000000     -2.616500000000000     -1.696400000000000
H       0.849200000000000     -1.905100000000000     -2.341700000000000
H       2.206100000000000     -2.156800000000000      0.568300000000000
H       3.170200000000000     -0.785600000000000      0.888700000000000
H      -0.969000000000000     -2.813200000000000      3.122000000000000
H      -1.337800000000000     -1.108700000000000      3.430300000000000
H      -2.649300000000000     -2.278100000000000      3.241300000000000
H      -2.307900000000000     -2.945300000000000     -0.391400000000000
H      -1.461200000000000     -3.843700000000000      0.862800000000000
H      -3.132400000000000     -3.336700000000000      1.109600000000000
H      -1.749900000000000     -0.807200000000000     -3.394700000000000
H      -2.744700000000000      0.610200000000000     -3.048900000000000
H      -3.416200000000000     -1.037300000000000     -2.979300000000000
H       3.794200000000000     -0.888700000000000     -1.690000000000000
H       3.094000000000000     -2.481900000000000     -1.620000000000000
H      -7.061200000000000      1.929300000000000     -0.372200000000000
H      -6.040200000000000      1.547000000000000     -1.744900000000000
H      -5.771600000000000      3.058500000000000     -0.847400000000000
H      -6.173500000000000      1.772000000000000      1.982100000000000
H      -4.872600000000000      2.919500000000000      1.593800000000000
H      -4.508200000000000      1.331600000000000      2.293900000000000
H       4.195100000000000      2.912200000000000     -0.697000000000000
H       3.834600000000000      1.241800000000000     -1.016700000000000
H       0.546000000000000      3.022200000000000     -1.100700000000000
H       1.740400000000000      2.168500000000000     -2.089400000000000
H       2.077700000000000      3.799100000000000     -1.511500000000000
H       1.060500000000000      3.636500000000000      1.279300000000000
H       2.676100000000000      4.248000000000000      0.901800000000000
H       2.465000000000000      2.981100000000000      2.121600000000000
H       5.497600000000000     -2.612200000000000     -1.313800000000000
H       4.661800000000000     -3.190800000000000      0.119100000000000
H       4.737800000000000      2.528800000000000      1.601600000000000
H       4.173100000000000      0.881600000000000      1.584100000000000
H       6.619500000000000     -1.887000000000000      0.728700000000000
H       5.189000000000000     -1.123500000000000      1.343800000000000
H       6.643500000000000      1.056100000000000      1.493800000000000
H       6.548500000000000      2.034200000000000      0.039200000000000
H       7.230300000000000     -0.179900000000000     -0.565800000000000
H       5.657200000000000      0.098600000000000     -1.242900000000000
