83

O       0.151700000000000     -2.459100000000000      0.503500000000000
N       0.991100000000000     -0.205000000000000      2.513900000000000
C       2.009100000000000     -0.102400000000000      1.454200000000000
C      -0.429300000000000      0.077400000000000      2.226900000000000
C       2.292600000000000     -1.410100000000000      0.671600000000000
C      -1.316900000000000     -1.156700000000000      1.891300000000000
C       1.157000000000000     -1.810500000000000     -0.280600000000000
C      -1.113000000000000     -1.791000000000000      0.510900000000000
C       3.313300000000000      0.463300000000000      2.086800000000000
C      -0.649800000000000      1.275900000000000      1.260800000000000
C       1.625600000000000     -2.824100000000000     -1.340800000000000
C      -2.173200000000000     -2.865300000000000      0.191000000000000
C       4.403400000000000      0.962600000000000      1.118900000000000
C      -2.100000000000000      1.779800000000000      1.225400000000000
C       1.204800000000000     -1.236900000000000      3.521700000000000
C       2.029900000000000     -2.228000000000000     -2.700800000000000
C      -3.625300000000000     -2.376300000000000      0.092600000000000
C       4.249500000000000      2.404500000000000      0.618200000000000
C      -2.289900000000000      2.896900000000000      0.194500000000000
C       3.289200000000000     -1.354200000000000     -2.719500000000000
C      -3.832400000000000     -1.279600000000000     -0.955900000000000
C       3.364600000000000      2.653500000000000     -0.607800000000000
C      -3.741100000000000      3.388200000000000      0.080600000000000
C       2.996900000000000      0.127400000000000     -2.467900000000000
C       4.026600000000000      2.412400000000000     -1.974600000000000
C      -5.266200000000000     -0.741800000000000     -0.944900000000000
C       4.277400000000000      0.960000000000000     -2.389000000000000
C      -4.784800000000000      2.314500000000000     -0.259500000000000
C      -5.480900000000000      0.453200000000000     -1.886400000000000
C      -4.579800000000000      1.671600000000000     -1.634800000000000
H       1.697600000000000      0.649600000000000      0.732700000000000
H      -0.823600000000000      0.437700000000000      3.189400000000000
H       3.205100000000000     -1.283100000000000      0.088000000000000
H       2.507800000000000     -2.228600000000000      1.369300000000000
H      -1.170100000000000     -1.926400000000000      2.659400000000000
H      -2.361300000000000     -0.852900000000000      2.009600000000000
H       0.757100000000000     -0.928700000000000     -0.789900000000000
H      -1.159900000000000     -1.031800000000000     -0.273100000000000
H       3.774400000000000     -0.324100000000000      2.697200000000000
H       3.065200000000000      1.280000000000000      2.777800000000000
H      -0.350400000000000      1.008000000000000      0.242000000000000
H      -0.008600000000000      2.111200000000000      1.572400000000000
H       0.808100000000000     -3.531500000000000     -1.536700000000000
H       2.447800000000000     -3.434800000000000     -0.946900000000000
H      -2.118000000000000     -3.661500000000000      0.945100000000000
H      -1.899700000000000     -3.349800000000000     -0.756000000000000
H       4.563200000000000      0.264500000000000      0.300700000000000
H       5.340300000000000      0.945300000000000      1.693800000000000
H      -2.390300000000000      2.140500000000000      2.219100000000000
H      -2.763300000000000      0.951900000000000      0.975800000000000
H       0.525900000000000     -1.096400000000000      4.370800000000000
H       1.047600000000000     -2.246200000000000      3.129800000000000
H       2.212700000000000     -1.193700000000000      3.944200000000000
H       1.181600000000000     -1.683600000000000     -3.133400000000000
H       2.215000000000000     -3.078700000000000     -3.370200000000000
H      -4.262500000000000     -3.233400000000000     -0.158900000000000
H      -3.964100000000000     -2.024400000000000      1.073100000000000
H       3.870200000000000      3.018300000000000      1.445300000000000
H       5.250700000000000      2.797000000000000      0.397500000000000
H      -1.935700000000000      2.560700000000000     -0.786400000000000
H      -1.657400000000000      3.749700000000000      0.471100000000000
H       3.750300000000000     -1.438600000000000     -3.712100000000000
H       4.026100000000000     -1.737600000000000     -2.005100000000000
H      -3.589800000000000     -1.667900000000000     -1.952100000000000
H      -3.143300000000000     -0.459400000000000     -0.755500000000000
H       3.104900000000000      3.721400000000000     -0.586300000000000
H       2.409500000000000      2.134000000000000     -0.531400000000000
H      -4.026500000000000      3.853500000000000      1.032400000000000
H      -3.783300000000000      4.181100000000000     -0.676300000000000
H       2.433300000000000      0.238600000000000     -1.545200000000000
H       2.359500000000000      0.517000000000000     -3.271300000000000
H       4.979700000000000      2.954700000000000     -2.009500000000000
H       3.389400000000000      2.875500000000000     -2.739600000000000
H      -5.552000000000000     -0.462600000000000      0.075300000000000
H      -5.950600000000000     -1.545900000000000     -1.243000000000000
H       4.752900000000000      0.962200000000000     -3.378300000000000
H       5.003300000000000      0.497800000000000     -1.715100000000000
H      -5.778200000000000      2.780600000000000     -0.240100000000000
H      -4.795500000000000      1.561100000000000      0.532500000000000
H      -6.530300000000000      0.765600000000000     -1.819700000000000
H      -5.322900000000000      0.117100000000000     -2.918800000000000
H      -4.795000000000000      2.424000000000000     -2.404300000000000
H      -3.535700000000000      1.385000000000000     -1.785600000000000
