83

N       3.336800000000000      0.894100000000000     -0.221800000000000
N      -2.901700000000000     -0.809400000000000      0.833700000000000
C       2.578500000000000      1.890300000000000      0.562800000000000
C       3.289200000000000     -0.389200000000000      0.510600000000000
C       2.915400000000000      0.806800000000000     -1.631800000000000
C      -3.372500000000000      0.030000000000000      1.956600000000000
C      -2.301500000000000     -2.059200000000000      1.351900000000000
C      -4.016500000000000     -1.082400000000000     -0.098000000000000
C       2.666000000000000      3.340600000000000      0.065600000000000
C       3.930800000000000     -1.596300000000000     -0.186200000000000
C       1.431200000000000      0.500100000000000     -1.876200000000000
C      -2.282900000000000      0.938200000000000      2.550000000000000
C      -1.490100000000000     -2.825800000000000      0.291600000000000
C      -4.240100000000000      0.069500000000000     -1.097100000000000
C       1.708300000000000      4.234500000000000      0.864500000000000
C       4.105800000000000     -2.810100000000000      0.739600000000000
C       1.101800000000000      0.423900000000000     -3.373900000000000
C      -1.847800000000000      2.052300000000000      1.588800000000000
C      -0.841600000000000     -4.103000000000000      0.844700000000000
C      -3.003400000000000      0.422100000000000     -1.933600000000000
C       0.266300000000000      4.144800000000000      0.341200000000000
C       2.883000000000000     -3.211100000000000      1.572700000000000
C      -0.409200000000000      0.454300000000000     -3.638600000000000
C      -1.042600000000000      3.141500000000000      2.312600000000000
C       0.446100000000000     -3.867500000000000      1.639000000000000
C      -2.642500000000000     -0.631900000000000     -2.990700000000000
C      -0.777600000000000      4.374300000000000      1.435500000000000
C       1.639500000000000     -3.525000000000000      0.739000000000000
C      -1.128900000000000     -0.806200000000000     -3.152500000000000
H       1.529600000000000      1.583300000000000      0.652800000000000
H       2.973400000000000      1.891300000000000      1.588600000000000
H       3.809500000000000     -0.244900000000000      1.466700000000000
H       2.247400000000000     -0.631600000000000      0.752400000000000
H       3.171200000000000      1.749100000000000     -2.130800000000000
H       3.531900000000000      0.067500000000000     -2.156700000000000
H      -4.191700000000000      0.686700000000000      1.637900000000000
H      -3.798000000000000     -0.598100000000000      2.750800000000000
H      -1.619100000000000     -1.816200000000000      2.173800000000000
H      -3.080100000000000     -2.710800000000000      1.769700000000000
H      -3.839500000000000     -1.987400000000000     -0.684100000000000
H      -4.944900000000000     -1.278100000000000      0.455000000000000
H       3.693800000000000      3.698500000000000      0.200500000000000
H       2.429500000000000      3.430600000000000     -0.999100000000000
H       3.325600000000000     -1.898400000000000     -1.048700000000000
H       4.918900000000000     -1.319300000000000     -0.574300000000000
H       1.167900000000000     -0.445600000000000     -1.392500000000000
H       0.809700000000000      1.280400000000000     -1.425800000000000
H      -2.695400000000000      1.391900000000000      3.460100000000000
H      -1.409300000000000      0.355700000000000      2.863600000000000
H      -2.142000000000000     -3.134300000000000     -0.531800000000000
H      -0.732800000000000     -2.164600000000000     -0.139300000000000
H      -5.068600000000000     -0.195200000000000     -1.765600000000000
H      -4.559200000000000      0.968400000000000     -0.556600000000000
H       1.766200000000000      3.978900000000000      1.928600000000000
H       2.040200000000000      5.276700000000000      0.778700000000000
H       4.425600000000000     -3.666400000000000      0.132900000000000
H       4.931000000000000     -2.601200000000000      1.432300000000000
H       1.551500000000000      1.282700000000000     -3.887100000000000
H       1.545700000000000     -0.478900000000000     -3.809600000000000
H      -1.253200000000000      1.619400000000000      0.777700000000000
H      -2.735600000000000      2.508200000000000      1.134200000000000
H      -1.564700000000000     -4.627700000000000      1.480900000000000
H      -0.620400000000000     -4.777600000000000      0.008000000000000
H      -3.197300000000000      1.371300000000000     -2.449200000000000
H      -2.155000000000000      0.609900000000000     -1.266800000000000
H       0.141100000000000      4.917500000000000     -0.428200000000000
H       0.077100000000000      3.192200000000000     -0.161200000000000
H       3.147300000000000     -4.094700000000000      2.167300000000000
H       2.655500000000000     -2.417400000000000      2.294300000000000
H      -0.824900000000000      1.353500000000000     -3.170900000000000
H      -0.580600000000000      0.561600000000000     -4.716700000000000
H      -1.612300000000000      3.475500000000000      3.188900000000000
H      -0.102400000000000      2.723000000000000      2.688400000000000
H       0.293300000000000     -3.078300000000000      2.383200000000000
H       0.682400000000000     -4.783200000000000      2.195400000000000
H      -3.064900000000000     -1.607800000000000     -2.730100000000000
H      -3.088800000000000     -0.350300000000000     -3.952100000000000
H      -1.719900000000000      4.686000000000000      0.968500000000000
H      -0.458000000000000      5.207700000000000      2.073100000000000
H       1.850600000000000     -4.368100000000000      0.070200000000000
H       1.388900000000000     -2.671700000000000      0.104200000000000
H      -0.725700000000000     -1.138900000000000     -2.193100000000000
H      -0.936500000000000     -1.619500000000000     -3.863000000000000
