83

N       6.269100000000000      0.114500000000000     -0.118200000000000
N      -6.271800000000000      0.144400000000000     -0.107900000000000
C       7.254900000000000      1.217200000000000     -0.242200000000000
C       6.785100000000000     -1.274300000000000      0.004500000000000
C      -7.306800000000000      1.208300000000000     -0.109900000000000
C      -6.724800000000000     -1.271500000000000     -0.125900000000000
C       8.533400000000000      0.747600000000000     -0.975400000000000
C       8.261100000000001     -1.327100000000000      0.462000000000000
C      -8.572500000000000      0.759600000000000     -0.877700000000000
C      -8.191000000000001     -1.437400000000000      0.335900000000000
C       9.212899999999999     -0.456500000000000     -0.343300000000000
C      -9.190200000000001     -0.532600000000000     -0.368300000000000
C       5.077700000000000      0.430900000000000      0.662700000000000
C      -5.087700000000000      0.431900000000000      0.695600000000000
C       6.649800000000000      2.338200000000000     -1.126700000000000
C       7.633100000000000      1.847800000000000      1.117100000000000
C       6.001100000000000     -2.182100000000000      0.991100000000000
C       6.636300000000000     -1.927900000000000     -1.388900000000000
C      -6.762300000000000      2.440200000000000     -0.878700000000000
C      -7.695900000000000      1.678700000000000      1.310100000000000
C      -6.565600000000000     -1.770200000000000     -1.581000000000000
C      -5.888700000000000     -2.240400000000000      0.754200000000000
C       3.789200000000000     -0.004000000000000     -0.038800000000000
C      -3.822200000000000      0.075500000000000     -0.083800000000000
C       2.518600000000000      0.370100000000000      0.730400000000000
C      -2.532900000000000      0.347500000000000      0.697400000000000
C       1.262500000000000     -0.019900000000000     -0.052200000000000
C      -1.264500000000000     -0.034200000000000     -0.069100000000000
C      -0.007800000000000      0.325500000000000      0.727000000000000
H       8.287400000000000      0.501700000000000     -2.017000000000000
H       9.262200000000000      1.566300000000000     -1.046100000000000
H       8.321800000000000     -1.027500000000000      1.516300000000000
H       8.634399999999999     -2.359800000000000      0.439300000000000
H      -8.329000000000001      0.633900000000000     -1.941200000000000
H      -9.337400000000001      1.547500000000000     -0.857400000000000
H      -8.251200000000001     -1.250500000000000      1.415900000000000
H      -8.519100000000000     -2.478000000000000      0.209900000000000
H       9.686800000000000     -1.051900000000000     -1.133400000000000
H      10.028400000000000     -0.124500000000000      0.311000000000000
H     -10.011600000000000     -0.307000000000000      0.322800000000000
H      -9.646699999999999     -1.064500000000000     -1.212000000000000
H       4.969200000000000      1.513100000000000      0.793400000000000
H       5.128000000000000      0.059300000000000      1.691000000000000
H      -4.998200000000000      1.501500000000000      0.914200000000000
H      -5.114100000000000     -0.034200000000000      1.685200000000000
H       7.391900000000000      3.119800000000000     -1.329600000000000
H       6.318200000000000      1.942200000000000     -2.094100000000000
H       5.791600000000000      2.832200000000000     -0.660400000000000
H       7.985600000000000      1.106800000000000      1.839100000000000
H       8.437200000000001      2.582900000000000      0.991300000000000
H       6.795800000000000      2.379700000000000      1.580700000000000
H       6.455300000000000     -3.181800000000000      1.020100000000000
H       6.044400000000000     -1.806100000000000      2.019100000000000
H       4.959500000000000     -2.349600000000000      0.716900000000000
H       7.180300000000000     -1.392000000000000     -2.171500000000000
H       7.016600000000000     -2.956300000000000     -1.382000000000000
H       5.585300000000000     -1.971900000000000     -1.698000000000000
H      -5.922800000000000      2.923400000000000     -0.369200000000000
H      -7.541100000000000      3.203400000000000     -0.996600000000000
H      -6.423200000000000      2.160500000000000     -1.883500000000000
H      -6.873400000000000      2.189800000000000      1.821300000000000
H      -8.013800000000000      0.853600000000000      1.952500000000000
H      -8.527500000000000      2.392300000000000      1.266300000000000
H      -5.519000000000000     -1.737100000000000     -1.904600000000000
H      -7.143100000000000     -1.181300000000000     -2.298700000000000
H      -6.902000000000000     -2.809600000000000     -1.677000000000000
H      -4.849000000000000     -2.355500000000000      0.450600000000000
H      -6.312900000000000     -3.252300000000000      0.696500000000000
H      -5.923900000000000     -1.967200000000000      1.814400000000000
H       3.751800000000000      0.488000000000000     -1.020800000000000
H       3.768600000000000     -1.075000000000000     -0.248400000000000
H      -3.796700000000000      0.683100000000000     -0.999300000000000
H      -3.802600000000000     -0.958900000000000     -0.427800000000000
H       2.521700000000000     -0.135600000000000      1.703500000000000
H       2.509300000000000      1.449300000000000      0.924900000000000
H      -2.493100000000000      1.412200000000000      0.959200000000000
H      -2.562000000000000     -0.210700000000000      1.641500000000000
H       1.255900000000000      0.501200000000000     -1.017300000000000
H       1.279500000000000     -1.095600000000000     -0.265400000000000
H      -1.250700000000000      0.488500000000000     -1.033100000000000
H      -1.273600000000000     -1.109600000000000     -0.283500000000000
H      -0.014400000000000      1.397800000000000      0.957800000000000
H      -0.011500000000000     -0.211400000000000      1.683300000000000
