83

O      -4.832100000000000     -1.488800000000000     -1.852800000000000
N      -3.008500000000000     -1.200700000000000      0.795300000000000
C      -3.548300000000000      1.073200000000000     -0.414500000000000
C      -3.661400000000000     -0.493600000000000     -0.324700000000000
C      -2.030800000000000      1.626400000000000     -0.369800000000000
C      -0.696300000000000     -0.111600000000000      1.261900000000000
C      -1.265100000000000      1.299300000000000      0.959700000000000
C      -1.556300000000000     -1.279500000000000      0.732600000000000
C       0.727200000000000     -0.264700000000000      0.662000000000000
C      -5.092400000000000     -1.144400000000000     -0.470800000000000
C      -3.409300000000000     -1.363900000000000     -1.614200000000000
C      -4.416900000000000      1.723600000000000      0.703000000000000
C      -4.248900000000000      1.531200000000000     -1.738800000000000
C      -2.034200000000000      3.193500000000000     -0.424600000000000
C      -1.196800000000000      1.205700000000000     -1.598400000000000
C      -0.490900000000000     -0.224700000000000      2.796500000000000
C       1.251300000000000     -1.704800000000000      0.949500000000000
C       1.642100000000000      0.850300000000000      1.240200000000000
C      -3.596600000000000     -1.053900000000000      2.111400000000000
C       2.358100000000000     -2.279100000000000     -0.006300000000000
C       2.044600000000000      1.889100000000000      0.174400000000000
C       3.603700000000000     -1.373100000000000      0.033200000000000
C       2.731500000000000     -3.690700000000000      0.486000000000000
C       1.801000000000000     -2.398400000000000     -1.437400000000000
C       3.208800000000000      2.787900000000000      0.606500000000000
C       4.767000000000000     -1.651800000000000     -0.918100000000000
C       4.599200000000000      2.128900000000000      0.686700000000000
C       5.762800000000000     -0.476600000000000     -0.890900000000000
C       5.390000000000000      2.069500000000000     -0.632700000000000
C       5.197800000000000      0.821700000000000     -1.504800000000000
H      -0.494200000000000      2.056900000000000      1.103700000000000
H      -1.946900000000000      1.546100000000000      1.781100000000000
H      -1.249900000000000     -1.538500000000000     -0.285900000000000
H      -1.343700000000000     -2.180900000000000      1.319100000000000
H       0.670700000000000     -0.154500000000000     -0.420500000000000
H      -5.307000000000000     -2.057100000000000      0.098500000000000
H      -5.958000000000000     -0.483300000000000     -0.386300000000000
H      -2.912800000000000     -0.882900000000000     -2.458900000000000
H      -2.970500000000000     -2.361200000000000     -1.486500000000000
H      -4.597300000000000      2.786000000000000      0.502400000000000
H      -3.973100000000000      1.672000000000000      1.695000000000000
H      -5.404800000000000      1.259400000000000      0.777700000000000
H      -4.289400000000000      2.620200000000000     -1.832400000000000
H      -5.291300000000000      1.196600000000000     -1.779500000000000
H      -3.760100000000000      1.143900000000000     -2.635500000000000
H      -2.537900000000000      3.633100000000000      0.441800000000000
H      -1.011600000000000      3.591000000000000     -0.426400000000000
H      -2.505100000000000      3.580400000000000     -1.332100000000000
H      -0.188500000000000      1.626400000000000     -1.563000000000000
H      -1.098900000000000      0.125900000000000     -1.697500000000000
H      -1.634900000000000      1.576500000000000     -2.530700000000000
H       0.103400000000000      0.559700000000000      3.265700000000000
H      -1.448100000000000     -0.160300000000000      3.320200000000000
H      -0.073300000000000     -1.189100000000000      3.101200000000000
H       1.664400000000000     -1.730200000000000      1.967300000000000
H       0.475500000000000     -2.466900000000000      0.938400000000000
H       2.536900000000000      0.401300000000000      1.679000000000000
H       1.229300000000000      1.436300000000000      2.060700000000000
H      -3.402600000000000     -0.088200000000000      2.574300000000000
H      -3.213700000000000     -1.829200000000000      2.785100000000000
H      -4.682800000000000     -1.188200000000000      2.097900000000000
H       2.285900000000000      1.414800000000000     -0.780000000000000
H       1.196500000000000      2.548000000000000     -0.030600000000000
H       3.994300000000000     -1.336000000000000      1.058500000000000
H       3.265200000000000     -0.376000000000000     -0.212000000000000
H       1.857500000000000     -4.352000000000000      0.494400000000000
H       3.136300000000000     -3.660700000000000      1.503800000000000
H       3.485700000000000     -4.154800000000000     -0.158600000000000
H       0.824600000000000     -2.895800000000000     -1.440000000000000
H       2.463400000000000     -2.990400000000000     -2.078500000000000
H       1.680400000000000     -1.418800000000000     -1.910900000000000
H       2.968700000000000      3.199000000000000      1.595800000000000
H       3.260300000000000      3.648800000000000     -0.071400000000000
H       4.417900000000000     -1.796100000000000     -1.945500000000000
H       5.282800000000000     -2.569200000000000     -0.614100000000000
H       4.557100000000000      1.152100000000000      1.173200000000000
H       5.189700000000000      2.763400000000000      1.362500000000000
H       6.650700000000000     -0.771200000000000     -1.464300000000000
H       6.105400000000000     -0.313300000000000      0.137400000000000
H       5.163000000000000      2.958600000000000     -1.233300000000000
H       6.458600000000000      2.138500000000000     -0.389000000000000
H       4.149200000000000      0.722400000000000     -1.797200000000000
H       5.736300000000000      0.997200000000000     -2.446000000000000
