83

O       4.276200000000000      1.358700000000000      0.050800000000000
N       4.533800000000000      0.757600000000000      1.351400000000000
C      -0.062200000000000     -1.558700000000000      1.060200000000000
C      -1.581400000000000     -1.535200000000000      0.953900000000000
C      -0.764800000000000     -0.278000000000000      0.684500000000000
C       0.831200000000000     -2.284700000000000      0.031900000000000
C      -2.270000000000000     -2.183600000000000     -0.236600000000000
C      -2.362800000000000     -1.667700000000000      2.237300000000000
C       0.369100000000000     -3.757500000000000     -0.072900000000000
C       0.684100000000000     -1.579200000000000     -1.337100000000000
C      -0.751300000000000      0.885600000000000      1.616000000000000
C       2.270500000000000     -2.208100000000000      0.522400000000000
C       1.007600000000000     -4.516400000000000     -1.236600000000000
C       1.320600000000000     -2.351200000000000     -2.493300000000000
C      -3.676000000000000     -1.621700000000000     -0.444600000000000
C      -2.074500000000000     -2.956100000000000      2.950900000000000
C       0.813000000000000     -3.786800000000000     -2.560400000000000
C       2.706700000000000     -0.758500000000000      0.646500000000000
C      -3.637800000000000     -0.120100000000000     -0.733700000000000
C       4.128800000000000     -0.634200000000000      1.196200000000000
C      -5.047500000000000      0.449300000000000     -0.909200000000000
C      -5.004300000000000      1.943700000000000     -1.235600000000000
C      -4.348800000000000      2.786900000000000     -0.138800000000000
C       4.341900000000000      2.770500000000000      0.209600000000000
C      -4.369300000000000      4.288700000000000     -0.428800000000000
C       3.041600000000000      3.298700000000000      0.796500000000000
C       4.394000000000000      3.431300000000000     -1.159300000000000
C       2.076200000000000      3.311700000000000     -0.385900000000000
C       2.943200000000000      3.436600000000000     -1.639300000000000
C      -3.787800000000000      5.078500000000000      0.704100000000000
H       0.337300000000000     -1.642600000000000      2.066900000000000
H      -0.789800000000000      0.101700000000000     -0.326600000000000
H      -2.456500000000000     -3.235300000000000      0.011300000000000
H      -1.786700000000000     -2.189500000000000     -1.200300000000000
H      -3.439700000000000     -1.556900000000000      2.106300000000000
H      -2.101100000000000     -0.860900000000000      2.930400000000000
H      -0.695000000000000     -3.896700000000000     -0.184000000000000
H       0.615200000000000     -4.279300000000000      0.862100000000000
H       1.105000000000000     -0.570300000000000     -1.341800000000000
H      -0.324700000000000     -1.389200000000000     -1.674200000000000
H      -0.438400000000000      0.608700000000000      2.627800000000000
H      -1.737900000000000      1.353500000000000      1.675200000000000
H      -0.045700000000000      1.641200000000000      1.258200000000000
H       2.365600000000000     -2.698100000000000      1.500500000000000
H       2.956600000000000     -2.734400000000000     -0.150200000000000
H       0.569400000000000     -5.519200000000000     -1.303500000000000
H       2.077900000000000     -4.659900000000000     -1.049100000000000
H       1.101100000000000     -1.842600000000000     -3.439700000000000
H       2.411700000000000     -2.349700000000000     -2.388400000000000
H      -4.352300000000000     -1.843200000000000      0.385400000000000
H      -4.119100000000000     -2.132000000000000     -1.310600000000000
H      -1.023000000000000     -3.045900000000000      3.239300000000000
H      -2.323200000000000     -3.822900000000000      2.330300000000000
H      -2.670200000000000     -3.023600000000000      3.867500000000000
H      -0.252300000000000     -3.784800000000000     -2.822100000000000
H       1.335600000000000     -4.325600000000000     -3.358700000000000
H       2.699500000000000     -0.283300000000000     -0.335200000000000
H       2.042700000000000     -0.185700000000000      1.301000000000000
H      -3.032700000000000      0.079200000000000     -1.625700000000000
H      -3.181200000000000      0.389100000000000      0.112900000000000
H       4.197500000000000     -1.126100000000000      2.172700000000000
H       4.829300000000000     -1.149700000000000      0.527400000000000
H      -5.634400000000000      0.286500000000000      0.002700000000000
H      -5.560400000000000     -0.077600000000000     -1.722500000000000
H       5.552600000000000      0.792800000000000      1.393400000000000
H      -4.471300000000000      2.097600000000000     -2.181800000000000
H      -6.031900000000000      2.293700000000000     -1.392800000000000
H      -3.301800000000000      2.492500000000000     -0.011500000000000
H      -4.856700000000000      2.592700000000000      0.814000000000000
H       5.219000000000000      3.051000000000000      0.805500000000000
H      -3.807600000000000      4.492600000000000     -1.347800000000000
H      -5.401200000000000      4.614100000000000     -0.605200000000000
H       3.184900000000000      4.323700000000000      1.158800000000000
H       2.644800000000000      2.695800000000000      1.618400000000000
H       5.041900000000000      2.902100000000000     -1.864900000000000
H       4.748900000000000      4.464400000000000     -1.065800000000000
H       1.351600000000000      4.127900000000000     -0.304700000000000
H       1.511900000000000      2.373200000000000     -0.427000000000000
H       2.756100000000000      2.587700000000000     -2.307100000000000
H       2.716700000000000      4.349400000000000     -2.199700000000000
H      -4.352100000000000      4.921800000000000      1.629200000000000
H      -2.746000000000000      4.797700000000000      0.890600000000000
H      -3.810100000000000      6.149000000000000      0.476000000000000
