84

N      -7.772900000000000     -0.232100000000000     -1.130100000000000
N       7.775100000000000      0.210000000000000     -1.131200000000000
C      -5.217000000000000      0.334600000000000      0.212100000000000
C       5.215200000000000     -0.330000000000000      0.214300000000000
C      -1.452500000000000      0.327400000000000      1.143500000000000
C       1.451800000000000     -0.303600000000000      1.146200000000000
C      -7.602800000000000      1.041500000000000     -0.404000000000000
C      -6.870800000000000     -1.349100000000000     -0.788500000000000
C       6.875800000000000      1.334400000000000     -0.807200000000000
C       7.599900000000000     -1.052700000000000     -0.387400000000000
C      -6.120600000000000      1.459700000000000     -0.302800000000000
C      -5.399200000000000     -0.896600000000000     -0.681300000000000
C       5.402700000000000      0.888000000000000     -0.696100000000000
C       6.116300000000000     -1.465000000000000     -0.282900000000000
C      -3.754700000000000      0.779800000000000      0.227100000000000
C       3.751500000000000     -0.770400000000000      0.233100000000000
C      -2.918600000000000     -0.101200000000000      1.148800000000000
C       2.917400000000000      0.126400000000000      1.140600000000000
C       0.741400000000000      0.209800000000000      2.405200000000000
C      -0.739800000000000     -0.164000000000000      2.409800000000000
C       0.738800000000000      0.187500000000000     -0.120000000000000
C      -0.742300000000000     -0.186500000000000     -0.115200000000000
C      -8.350600000000000      2.116400000000000     -1.227800000000000
C      -8.272000000000000      1.005900000000000      0.981300000000000
C      -7.325800000000000     -2.085300000000000      0.483900000000000
C      -6.977500000000000     -2.366400000000000     -1.949100000000000
C       6.987700000000000      2.334900000000000     -1.981800000000000
C       7.330900000000000      2.087200000000000      0.455600000000000
C       8.345800000000001     -2.141400000000000     -1.194600000000000
C       8.266800000000000     -0.999500000000000      0.998500000000000
H      -5.514500000000000      0.092800000000000      1.238700000000000
H       5.511900000000000     -0.074500000000000      1.237900000000000
H      -1.401300000000000      1.425100000000000      1.146800000000000
H       1.401100000000000     -1.401100000000000      1.169000000000000
H      -6.026600000000000      2.338100000000000      0.349300000000000
H      -5.759300000000000      1.773200000000000     -1.292700000000000
H      -4.791000000000000     -1.731200000000000     -0.312700000000000
H      -5.018400000000000     -0.661900000000000     -1.685600000000000
H       4.796400000000000      1.729500000000000     -0.340400000000000
H       5.022900000000000      0.640300000000000     -1.697600000000000
H       6.018400000000000     -2.333700000000000      0.381400000000000
H       5.755700000000000     -1.791400000000000     -1.268900000000000
H      -3.353600000000000      0.785300000000000     -0.792300000000000
H      -3.692700000000000      1.813300000000000      0.592000000000000
H       3.686000000000000     -1.798400000000000      0.612600000000000
H       3.351800000000000     -0.789100000000000     -0.786700000000000
H      -2.999900000000000     -1.158600000000000      0.874300000000000
H      -3.322000000000000     -0.011600000000000      2.165800000000000
H       2.997600000000000      1.178800000000000      0.847100000000000
H       3.322800000000000      0.055200000000000      2.158300000000000
H       0.839700000000000      1.301000000000000      2.470400000000000
H       1.217700000000000     -0.206200000000000      3.301100000000000
H       1.201500000000000     -0.239700000000000     -1.016100000000000
H       0.831900000000000      1.277900000000000     -0.204600000000000
H      -0.838000000000000     -1.253900000000000      2.494300000000000
H      -1.214400000000000      0.267600000000000      3.299300000000000
H      -1.206800000000000      0.224700000000000     -1.017800000000000
H      -0.835700000000000     -1.278200000000000     -0.180000000000000
H      -7.669300000000000     -0.039900000000000     -2.127800000000000
H       7.672700000000000      0.003900000000000     -2.126200000000000
H      -7.940600000000000      2.207900000000000     -2.240900000000000
H      -8.270899999999999      3.102400000000000     -0.755000000000000
H      -9.417100000000000      1.878600000000000     -1.321100000000000
H      -9.289600000000000      0.602500000000000      0.920200000000000
H      -7.719500000000000      0.415900000000000      1.713300000000000
H      -8.350300000000001      2.016400000000000      1.400800000000000
H      -8.399800000000001     -2.303500000000000      0.453900000000000
H      -7.120000000000000     -1.530800000000000      1.400100000000000
H      -6.804300000000000     -3.045000000000000      0.584900000000000
H      -8.003700000000000     -2.736200000000000     -2.063600000000000
H      -6.330100000000000     -3.233900000000000     -1.774700000000000
H      -6.675500000000000     -1.922800000000000     -2.905600000000000
H       8.015200000000000      2.699800000000000     -2.099700000000000
H       6.342700000000000      3.206700000000000     -1.820800000000000
H       6.686000000000000      1.878700000000000     -2.932400000000000
H       8.405600000000000      2.301700000000000      0.424400000000000
H       7.121700000000000      1.546400000000000      1.379200000000000
H       6.812200000000000      3.049800000000000      0.542000000000000
H       9.413200000000000     -1.908200000000000     -1.289300000000000
H       8.262200000000000     -3.120400000000000     -0.708000000000000
H       7.937300000000000     -2.245900000000000     -2.207000000000000
H       7.714800000000000     -0.397400000000000      1.721000000000000
H       9.285700000000000     -0.600000000000000      0.933500000000000
H       8.341300000000000     -2.004200000000000      1.432400000000000
