84

N       6.929800000000000     -3.781500000000000     -1.661100000000000
N       8.635000000000000      5.175200000000000     -0.364600000000000
C      -2.802000000000000     -0.033500000000000      0.200000000000000
C      -1.497800000000000     -0.527100000000000      0.823400000000000
C      -5.770300000000000      0.040500000000000      0.072500000000000
C      -3.629500000000000      0.751600000000000      1.225600000000000
C      -3.609800000000000     -1.207600000000000     -0.367400000000000
C      -7.073800000000000      0.535200000000000     -0.551500000000000
C      -4.962400000000000      1.214400000000000      0.640100000000000
C      -4.942800000000000     -0.745200000000000     -0.952800000000000
C      -0.709400000000000      0.642400000000000      1.426300000000000
C      -0.651800000000000     -1.277200000000000     -0.213400000000000
C       1.470100000000000     -0.567500000000000      0.975100000000000
C       0.624100000000000      0.182000000000000      2.012100000000000
C       0.682000000000000     -1.737300000000000      0.372200000000000
C      -7.901300000000000     -0.642800000000000     -1.083500000000000
C      -7.882000000000000      1.357200000000000      0.461600000000000
C       2.775100000000000     -1.060100000000000      1.597700000000000
C      -9.234600000000000     -0.178100000000000     -1.664900000000000
C      -9.215400000000001      1.818400000000000     -0.122400000000000
C     -10.031100000000000      0.645900000000000     -0.658100000000000
C       3.838600000000000     -1.318000000000000      0.530500000000000
C       5.204000000000000     -1.718800000000000      1.104100000000000
C       6.307500000000000     -2.068800000000000      0.074300000000000
C       6.648200000000000     -0.858700000000000     -0.827200000000000
C       5.910800000000000     -3.338000000000000     -0.715800000000000
C       7.116100000000000      0.380000000000000     -0.054200000000000
C       7.538500000000000      1.539400000000000     -0.964700000000000
C       7.935400000000000      2.805100000000000     -0.196700000000000
C       8.298900000000000      3.972600000000000     -1.117300000000000
H      -2.564200000000000      0.646100000000000     -0.631000000000000
H      -1.735200000000000     -1.227600000000000      1.636800000000000
H      -6.009000000000000     -0.637000000000000      0.904900000000000
H      -3.107600000000000      1.655300000000000      1.554400000000000
H      -3.814300000000000      0.136500000000000      2.115400000000000
H      -3.794400000000000     -1.954000000000000      0.415600000000000
H      -3.070800000000000     -1.710400000000000     -1.175900000000000
H      -6.834800000000000      1.190800000000000     -1.401300000000000
H      -5.498600000000000      1.714000000000000      1.452600000000000
H      -4.778800000000000      1.962300000000000     -0.141600000000000
H      -4.756800000000000     -0.129100000000000     -1.841700000000000
H      -5.468000000000000     -1.645700000000000     -1.284900000000000
H      -0.528000000000000      1.411700000000000      0.665200000000000
H      -1.257700000000000      1.115400000000000      2.246500000000000
H      -1.162100000000000     -2.176100000000000     -0.571800000000000
H      -0.465400000000000     -0.637900000000000     -1.085500000000000
H       1.702700000000000      0.144200000000000      0.171000000000000
H       1.173100000000000      1.056000000000000      2.383000000000000
H       0.435800000000000     -0.466100000000000      2.877900000000000
H       0.493100000000000     -2.497900000000000      1.140800000000000
H       1.259800000000000     -2.224700000000000     -0.420600000000000
H      -7.377400000000000     -1.171200000000000     -1.885500000000000
H      -8.087199999999999     -1.367900000000000     -0.281200000000000
H      -7.347500000000000      2.263600000000000      0.761200000000000
H      -8.065400000000000      0.767900000000000      1.368800000000000
H       3.164800000000000     -0.297400000000000      2.284100000000000
H       2.608800000000000     -1.964200000000000      2.195800000000000
H      -9.824100000000000     -1.047700000000000     -1.976900000000000
H      -9.051500000000001      0.422800000000000     -2.564300000000000
H      -9.031400000000000      2.534700000000000     -0.932800000000000
H      -9.791499999999999      2.346900000000000      0.645700000000000
H     -10.947699999999999      1.018400000000000     -1.128900000000000
H     -10.338300000000000      0.003900000000000      0.176700000000000
H       3.481700000000000     -2.104700000000000     -0.139800000000000
H       3.958300000000000     -0.412600000000000     -0.075300000000000
H       5.056500000000000     -2.596000000000000      1.749000000000000
H       5.559000000000000     -0.930800000000000      1.778200000000000
H       7.212500000000000     -2.313500000000000      0.648400000000000
H       5.788600000000000     -0.600700000000000     -1.456900000000000
H       7.455600000000000     -1.139600000000000     -1.514000000000000
H       4.989500000000000     -3.166500000000000     -1.281400000000000
H       5.713500000000000     -4.155400000000000     -0.013000000000000
H       7.956200000000000      0.109500000000000      0.596800000000000
H       6.309500000000000      0.740600000000000      0.593200000000000
H       6.710400000000000      1.778700000000000     -1.643400000000000
H       8.379400000000000      1.218600000000000     -1.591800000000000
H       7.034700000000000     -3.093600000000000     -2.405300000000000
H       6.615700000000000     -4.637900000000000     -2.116100000000000
H       8.784500000000000      2.575200000000000      0.459300000000000
H       7.103400000000000      3.103200000000000      0.454100000000000
H       9.149100000000001      3.694400000000000     -1.750100000000000
H       7.456000000000000      4.197000000000000     -1.779900000000000
H       8.928200000000000      5.907400000000000     -1.009900000000000
H       9.434400000000000      4.988900000000000      0.239500000000000
