84

O       2.303500000000000      2.716600000000000     -0.111300000000000
O       2.851400000000000      3.810300000000000      1.848100000000000
C      -2.745200000000000     -3.699700000000000     -0.364200000000000
C      -3.792500000000000     -3.701000000000000      0.753000000000000
C      -1.406500000000000     -4.252600000000000      0.130700000000000
C      -5.105400000000000     -3.025200000000000      0.344200000000000
C      -0.401800000000000     -4.392200000000000     -1.016500000000000
C      -4.997400000000000     -1.497700000000000      0.335700000000000
C       0.991000000000000     -4.809600000000000     -0.534500000000000
C      -6.320700000000000     -0.837300000000000     -0.061500000000000
C       1.779400000000000     -3.638400000000000      0.059100000000000
C      -6.324600000000000      0.680900000000000      0.151100000000000
C       3.139600000000000     -4.092700000000000      0.597000000000000
C      -5.284300000000000      1.421000000000000     -0.693300000000000
C       3.978300000000000     -2.925800000000000      1.127800000000000
C      -5.324700000000000      2.928500000000000     -0.429100000000000
C       4.650000000000000     -2.124200000000000      0.008200000000000
C      -4.324300000000000      3.727900000000000     -1.272000000000000
C       5.363300000000000     -0.888100000000000      0.561300000000000
C      -2.859500000000000      3.289500000000000     -1.169400000000000
C       6.237500000000000     -0.169300000000000     -0.471300000000000
C      -2.300800000000000      3.329600000000000      0.254900000000000
C       5.536000000000000      0.264400000000000     -1.762100000000000
C      -0.849800000000000      2.842700000000000      0.289800000000000
C       4.297000000000000      1.144800000000000     -1.583200000000000
C      -0.287600000000000      2.857700000000000      1.714300000000000
C       4.589900000000000      2.481300000000000     -0.894100000000000
C       1.074400000000000      2.179400000000000      1.818600000000000
C       3.351600000000000      3.373600000000000     -0.845600000000000
C       2.181800000000000      3.005600000000000      1.214200000000000
H      -3.111800000000000     -4.303900000000000     -1.203000000000000
H      -2.587900000000000     -2.684200000000000     -0.743600000000000
H      -3.390900000000000     -3.216200000000000      1.651100000000000
H      -4.007700000000000     -4.741700000000000      1.026100000000000
H      -1.013300000000000     -3.585600000000000      0.905700000000000
H      -1.558400000000000     -5.233500000000000      0.597600000000000
H      -5.881500000000000     -3.318200000000000      1.062100000000000
H      -5.426500000000000     -3.389500000000000     -0.638800000000000
H      -0.773200000000000     -5.155600000000000     -1.711500000000000
H      -0.335200000000000     -3.455100000000000     -1.582400000000000
H      -4.213700000000000     -1.189600000000000     -0.363100000000000
H      -4.699100000000000     -1.151400000000000      1.332700000000000
H       0.907300000000000     -5.623600000000000      0.195200000000000
H       1.550300000000000     -5.206400000000000     -1.391000000000000
H      -7.134700000000000     -1.265700000000000      0.536100000000000
H      -6.544300000000000     -1.064100000000000     -1.110800000000000
H       1.912500000000000     -2.873500000000000     -0.713900000000000
H       1.213700000000000     -3.173700000000000      0.874200000000000
H      -6.155700000000000      0.895500000000000      1.213600000000000
H      -7.323900000000000      1.062500000000000     -0.092300000000000
H       2.969800000000000     -4.800300000000000      1.418100000000000
H       3.696700000000000     -4.632700000000000     -0.177900000000000
H      -5.464400000000000      1.225700000000000     -1.756900000000000
H      -4.287400000000000      1.040100000000000     -0.453900000000000
H       3.354500000000000     -2.268900000000000      1.746000000000000
H       4.760200000000000     -3.329000000000000      1.783300000000000
H      -5.147200000000000      3.122100000000000      0.635300000000000
H      -6.332200000000000      3.305900000000000     -0.644100000000000
H       5.370800000000000     -2.766800000000000     -0.511800000000000
H       3.903500000000000     -1.814600000000000     -0.729400000000000
H      -4.400200000000000      4.785100000000000     -0.988600000000000
H      -4.626300000000000      3.669400000000000     -2.325200000000000
H       4.623300000000000     -0.191800000000000      0.973200000000000
H       6.006400000000000     -1.184700000000000      1.399500000000000
H      -2.258900000000000      3.951100000000000     -1.806600000000000
H      -2.745100000000000      2.282400000000000     -1.587000000000000
H       6.694000000000000      0.705500000000000      0.006900000000000
H       7.070800000000000     -0.829600000000000     -0.743900000000000
H      -2.900500000000000      2.694000000000000      0.915300000000000
H      -2.359900000000000      4.352500000000000      0.645400000000000
H       6.263500000000000      0.797900000000000     -2.386800000000000
H       5.249300000000000     -0.627100000000000     -2.333100000000000
H      -0.238600000000000      3.479800000000000     -0.359700000000000
H      -0.800700000000000      1.823800000000000     -0.113400000000000
H       3.877100000000000      1.342900000000000     -2.577600000000000
H       3.527000000000000      0.596200000000000     -1.029700000000000
H      -0.982600000000000      2.329900000000000      2.378900000000000
H      -0.223600000000000      3.892600000000000      2.071600000000000
H       4.934800000000000      2.295300000000000      0.128900000000000
H       5.390700000000000      3.006600000000000     -1.426600000000000
H       1.067900000000000      1.182300000000000      1.363000000000000
H       1.329300000000000      2.025600000000000      2.874300000000000
H       3.591700000000000      4.348500000000000     -0.406700000000000
H       2.972600000000000      3.559500000000000     -1.856200000000000
