84

N      -3.680200000000000     -0.285700000000000      1.399300000000000
N       3.846700000000000      1.555700000000000      0.386100000000000
C      -1.374100000000000      0.714400000000000      1.023800000000000
C       1.564500000000000      0.445100000000000      0.670100000000000
C       0.861900000000000      1.802200000000000      0.538200000000000
C      -0.590000000000000      1.644900000000000      0.090000000000000
C       0.780700000000000     -0.485400000000000      1.604300000000000
C      -0.671300000000000     -0.642700000000000      1.156300000000000
C      -2.815400000000000      0.532500000000000      0.523100000000000
C       3.001700000000000      0.626100000000000      1.167700000000000
C      -3.462500000000000      1.918500000000000      0.259000000000000
C       3.748600000000000     -0.712700000000000      1.408500000000000
C      -4.900200000000000      1.870500000000000     -0.288000000000000
C       3.657700000000000     -1.767200000000000      0.301700000000000
C      -3.645000000000000     -1.723100000000000      1.087500000000000
C       3.731800000000000      1.494100000000000     -1.076600000000000
C      -3.495300000000000     -0.045500000000000      2.827700000000000
C       3.703900000000000      2.936100000000000      0.858900000000000
C      -5.002600000000000      1.232700000000000     -1.677900000000000
C       4.804200000000000     -2.784000000000000      0.302400000000000
C      -4.463800000000000     -2.078500000000000     -0.169100000000000
C       5.102900000000000      1.688000000000000     -1.753400000000000
C      -6.402600000000000      0.684800000000000     -1.996900000000000
C       6.217900000000000     -2.248900000000000      0.026600000000000
C      -5.948500000000000     -1.726300000000000     -0.019100000000000
C       6.134100000000000      0.608600000000000     -1.388500000000000
C      -6.390400000000000     -0.794800000000000     -2.420500000000000
C       6.565300000000000     -1.927900000000000     -1.435400000000000
C      -6.751300000000000     -1.802000000000000     -1.318300000000000
C       5.871300000000000     -0.729500000000000     -2.087500000000000
H      -1.378700000000000      1.199300000000000      2.009400000000000
H       1.562200000000000     -0.026800000000000     -0.320300000000000
H       0.891100000000000      2.347300000000000      1.489600000000000
H       1.316300000000000      2.420500000000000     -0.234100000000000
H       1.217500000000000     -1.484600000000000      1.660500000000000
H       0.795600000000000     -0.081300000000000      2.625200000000000
H      -0.618600000000000      1.266000000000000     -0.939400000000000
H      -1.006000000000000      2.656600000000000      0.084800000000000
H      -1.132900000000000     -1.274400000000000      1.915800000000000
H      -0.693800000000000     -1.180700000000000      0.200500000000000
H      -2.738000000000000      0.044400000000000     -0.453900000000000
H       2.930900000000000      1.044600000000000      2.183400000000000
H      -2.896800000000000      2.479100000000000     -0.490800000000000
H      -3.458700000000000      2.515800000000000      1.179100000000000
H       3.383600000000000     -1.165900000000000      2.340300000000000
H       4.795200000000000     -0.471700000000000      1.626000000000000
H      -5.285800000000000      2.896300000000000     -0.349400000000000
H      -5.542700000000000      1.359000000000000      0.434000000000000
H       3.575400000000000     -1.317700000000000     -0.680000000000000
H       2.729600000000000     -2.336000000000000      0.426300000000000
H      -4.093200000000000     -2.286800000000000      1.917200000000000
H      -2.646000000000000     -2.136300000000000      0.959900000000000
H       3.052200000000000      2.262600000000000     -1.463500000000000
H       3.321000000000000      0.548100000000000     -1.427700000000000
H      -4.322300000000000     -0.499300000000000      3.386900000000000
H      -2.568200000000000     -0.453800000000000      3.237600000000000
H      -3.537600000000000      1.024500000000000      3.058200000000000
H       3.801400000000000      2.994100000000000      1.949300000000000
H       4.534200000000000      3.537700000000000      0.470000000000000
H       2.791400000000000      3.456900000000000      0.571200000000000
H      -4.254600000000000      0.452000000000000     -1.814000000000000
H      -4.747600000000000      2.000500000000000     -2.420400000000000
H       4.576200000000000     -3.570300000000000     -0.428000000000000
H       4.815100000000000     -3.275900000000000      1.283900000000000
H      -4.380100000000000     -3.158800000000000     -0.344100000000000
H      -4.029700000000000     -1.602800000000000     -1.051000000000000
H       5.510000000000000      2.668400000000000     -1.477800000000000
H       4.965100000000000      1.708700000000000     -2.841500000000000
H      -6.792000000000000      1.266600000000000     -2.842900000000000
H      -7.108300000000000      0.845300000000000     -1.174300000000000
H       6.911600000000000     -3.044200000000000      0.334000000000000
H       6.458400000000000     -1.405000000000000      0.677300000000000
H      -6.082200000000000     -0.737700000000000      0.423200000000000
H      -6.392700000000000     -2.428700000000000      0.698300000000000
H       6.174900000000000      0.498000000000000     -0.302600000000000
H       7.128400000000000      0.960200000000000     -1.692000000000000
H      -7.139700000000000     -0.919300000000000     -3.213800000000000
H      -5.433400000000000     -1.064900000000000     -2.881000000000000
H       7.649100000000000     -1.761400000000000     -1.491700000000000
H       6.365700000000000     -2.817200000000000     -2.046500000000000
H      -6.670700000000000     -2.814900000000000     -1.732100000000000
H      -7.810300000000000     -1.661400000000000     -1.065500000000000
H       4.806300000000000     -0.933900000000000     -2.195700000000000
H       6.240400000000000     -0.646400000000000     -3.118800000000000
