84

O      -5.863200000000000     -0.440400000000000     -2.322600000000000
N      -5.923300000000000      1.849800000000000      0.561000000000000
C       0.433700000000000     -1.473000000000000     -0.057600000000000
C       1.275500000000000     -0.238700000000000      0.336100000000000
C      -1.017700000000000     -1.380900000000000      0.425800000000000
C      -1.673200000000000     -0.115000000000000     -0.221300000000000
C      -3.198400000000000      0.028600000000000      0.159900000000000
C       2.642900000000000     -0.680400000000000     -0.240400000000000
C      -3.898600000000000     -1.300200000000000     -0.262000000000000
C       0.656200000000000      0.991700000000000     -0.342400000000000
C      -0.829100000000000      1.162200000000000      0.028500000000000
C       1.293100000000000     -2.651300000000000      0.389500000000000
C      -1.808700000000000     -2.655500000000000      0.099300000000000
C       2.737500000000000     -2.175200000000000      0.146800000000000
C      -3.293500000000000     -2.522500000000000      0.436800000000000
C      -3.849100000000000      1.189000000000000     -0.655400000000000
C      -5.427500000000000     -1.249200000000000     -0.106400000000000
C       1.368100000000000      0.004500000000000      1.863800000000000
C       3.859500000000000      0.122500000000000      0.197300000000000
C      -3.336600000000000      0.314300000000000      1.676000000000000
C      -5.392700000000000      1.253800000000000     -0.666400000000000
C      -6.033600000000000     -0.115200000000000     -0.939400000000000
C       5.169600000000000     -0.378900000000000     -0.445900000000000
C       3.663200000000000      1.604400000000000     -0.147700000000000
C       6.434900000000000      0.419700000000000     -0.105400000000000
C      -5.375400000000000      3.191800000000000      0.755300000000000
C      -7.384200000000000      1.895400000000000      0.516600000000000
C       7.687300000000000     -0.080700000000000     -0.832000000000000
C       8.970000000000001      0.676200000000000     -0.435300000000000
C       9.246499999999999      0.615500000000000      1.067800000000000
C       8.867000000000001      2.137600000000000     -0.880100000000000
H       0.393800000000000     -1.529500000000000     -1.158600000000000
H      -1.018400000000000     -1.279600000000000      1.515300000000000
H      -1.641000000000000     -0.275900000000000     -1.310900000000000
H       2.584400000000000     -0.636000000000000     -1.339000000000000
H      -3.698500000000000     -1.451000000000000     -1.333000000000000
H       0.734900000000000      0.899600000000000     -1.433400000000000
H       1.138500000000000      1.929900000000000     -0.073700000000000
H      -1.222000000000000      1.992800000000000     -0.567900000000000
H      -0.903300000000000      1.471400000000000      1.075700000000000
H       1.139500000000000     -2.881500000000000      1.449600000000000
H       1.072900000000000     -3.558900000000000     -0.181800000000000
H      -1.395400000000000     -3.506800000000000      0.652600000000000
H      -1.703800000000000     -2.893400000000000     -0.967100000000000
H       3.332700000000000     -2.332900000000000      1.053500000000000
H       3.206200000000000     -2.751500000000000     -0.658700000000000
H      -3.808300000000000     -3.433000000000000      0.106500000000000
H      -3.432500000000000     -2.465200000000000      1.522000000000000
H      -3.540300000000000      1.058500000000000     -1.703500000000000
H      -3.398500000000000      2.147500000000000     -0.387500000000000
H      -5.710600000000000     -1.141900000000000      0.945900000000000
H      -5.845500000000000     -2.203500000000000     -0.452000000000000
H       0.386500000000000      0.123200000000000      2.330200000000000
H       1.865000000000000     -0.818400000000000      2.387300000000000
H       1.925500000000000      0.916400000000000      2.097200000000000
H       3.993900000000000      0.045000000000000      1.283500000000000
H      -2.955900000000000      1.308800000000000      1.929700000000000
H      -4.376200000000000      0.279800000000000      2.010500000000000
H      -2.795600000000000     -0.404300000000000      2.296000000000000
H      -5.658400000000000      1.908700000000000     -1.510800000000000
H      -7.116700000000000     -0.131100000000000     -0.816300000000000
H       5.339800000000000     -1.422200000000000     -0.153000000000000
H       5.047600000000000     -0.383800000000000     -1.537300000000000
H       2.966900000000000      2.080500000000000      0.542600000000000
H       4.563000000000000      2.205900000000000     -0.016100000000000
H       3.325600000000000      1.744300000000000     -1.179500000000000
H      -4.937000000000000     -0.300700000000000     -2.575400000000000
H       6.572700000000000      0.381100000000000      0.979800000000000
H       6.306600000000000      1.465100000000000     -0.384700000000000
H      -5.892700000000000      3.700800000000000      1.578300000000000
H      -5.478700000000000      3.823100000000000     -0.134800000000000
H      -4.328700000000000      3.175100000000000      1.069900000000000
H      -7.830800000000000      0.918300000000000      0.724400000000000
H      -7.770300000000000      2.290100000000000     -0.430300000000000
H      -7.773900000000000      2.537100000000000      1.317000000000000
H       7.826200000000000     -1.145800000000000     -0.607500000000000
H       7.537100000000000     -0.008300000000000     -1.916400000000000
H       9.810700000000001      0.210400000000000     -0.964100000000000
H       9.228100000000000     -0.419000000000000      1.425900000000000
H      10.239699999999999      1.024200000000000      1.285000000000000
H       8.524600000000000      1.196500000000000      1.650100000000000
H       8.131600000000001      2.702400000000000     -0.298700000000000
H       9.833000000000000      2.638300000000000     -0.749800000000000
H       8.600199999999999      2.209700000000000     -1.939700000000000
