84

N       5.610300000000000     -2.079300000000000      0.512400000000000
N      -4.868500000000000     -3.390800000000000     -0.154100000000000
C       0.090400000000000     -0.375300000000000     -0.046200000000000
C       1.410200000000000     -1.094100000000000      0.299100000000000
C      -1.012000000000000     -1.445600000000000     -0.186400000000000
C       2.323100000000000     -0.180600000000000      1.120200000000000
C       2.121900000000000     -1.556400000000000     -0.974600000000000
C      -1.699500000000000     -1.691300000000000      1.158700000000000
C      -2.037700000000000     -1.028300000000000     -1.242900000000000
C      -0.268000000000000      0.583200000000000      1.131800000000000
C       0.235500000000000      0.350000000000000     -1.418100000000000
C       3.656900000000000     -0.863000000000000      1.467800000000000
C       3.451900000000000     -2.264000000000000     -0.665100000000000
C      -2.816200000000000     -2.743100000000000      1.049600000000000
C      -3.160900000000000     -2.067800000000000     -1.395700000000000
C       4.377700000000000     -1.355300000000000      0.185400000000000
C      -3.851300000000000     -2.341300000000000     -0.033800000000000
C      -1.412000000000000      1.566300000000000      0.851400000000000
C       1.206500000000000      1.543700000000000     -1.428800000000000
C       4.515100000000000      0.105100000000000      2.291600000000000
C       4.112900000000000     -2.696000000000000     -1.980000000000000
C      -3.464300000000000     -2.937700000000000      2.426200000000000
C      -4.144900000000000     -1.587700000000000     -2.469600000000000
C      -1.522500000000000      2.641100000000000      1.938300000000000
C       0.683100000000000      2.718500000000000     -2.270900000000000
C      -2.410500000000000      3.817200000000000      1.516000000000000
C       1.109200000000000      4.089000000000000     -1.726100000000000
C      -1.675000000000000      5.020700000000000      0.899700000000000
C       0.469100000000000      4.476000000000000     -0.382300000000000
C      -1.030500000000000      4.786900000000000     -0.473800000000000
H       1.204800000000000     -1.976900000000000      0.920300000000000
H      -0.578700000000000     -2.395700000000000     -0.526900000000000
H       1.879400000000000      0.049800000000000      2.095000000000000
H       2.571900000000000      0.750300000000000      0.612100000000000
H       2.394100000000000     -0.742000000000000     -1.644100000000000
H       1.481800000000000     -2.247400000000000     -1.536800000000000
H      -2.190900000000000     -0.809100000000000      1.570900000000000
H      -0.966600000000000     -2.044200000000000      1.895300000000000
H      -1.583400000000000     -0.975800000000000     -2.238500000000000
H      -2.503600000000000     -0.064700000000000     -1.018800000000000
H      -0.393400000000000      0.087100000000000      2.100400000000000
H       0.555400000000000      1.277500000000000      1.314200000000000
H       0.457700000000000     -0.315300000000000     -2.260300000000000
H      -0.721600000000000      0.798000000000000     -1.689900000000000
H       3.437300000000000     -1.733500000000000      2.102400000000000
H       3.223300000000000     -3.174100000000000     -0.092600000000000
H      -2.352700000000000     -3.697400000000000      0.761800000000000
H      -2.710000000000000     -3.004200000000000     -1.754200000000000
H       4.655200000000000     -0.477900000000000     -0.414400000000000
H      -4.357500000000000     -1.421200000000000      0.288800000000000
H      -2.380700000000000      1.067200000000000      0.779400000000000
H      -1.253000000000000      2.063500000000000     -0.102400000000000
H       2.191500000000000      1.262800000000000     -1.813200000000000
H       1.373400000000000      1.921600000000000     -0.427200000000000
H       5.403500000000000     -0.389400000000000      2.695900000000000
H       3.951600000000000      0.495100000000000      3.146400000000000
H       4.842900000000000      0.957400000000000      1.686900000000000
H       3.403600000000000     -3.247700000000000     -2.606900000000000
H       4.963900000000000     -3.361500000000000     -1.805900000000000
H       4.464300000000000     -1.830600000000000     -2.552200000000000
H      -4.038000000000000     -2.053800000000000      2.724800000000000
H      -4.134100000000000     -3.802900000000000      2.439700000000000
H      -2.700900000000000     -3.117300000000000      3.191400000000000
H      -4.693800000000000     -0.700600000000000     -2.136100000000000
H      -4.872200000000000     -2.364200000000000     -2.725000000000000
H      -3.617600000000000     -1.329700000000000     -3.394600000000000
H      -0.537400000000000      3.011400000000000      2.242600000000000
H      -1.961300000000000      2.170500000000000      2.827500000000000
H      -0.406500000000000      2.704200000000000     -2.368000000000000
H       1.073200000000000      2.608700000000000     -3.290600000000000
H       6.116600000000000     -2.309900000000000     -0.340800000000000
H       6.237600000000000     -1.476700000000000      1.042300000000000
H      -5.374900000000000     -3.488500000000000      0.724300000000000
H      -5.570500000000000     -3.118100000000000     -0.839800000000000
H      -2.915300000000000      4.187500000000000      2.418100000000000
H      -3.206000000000000      3.478700000000000      0.841300000000000
H       0.865300000000000      4.856900000000000     -2.470400000000000
H       2.200200000000000      4.100300000000000     -1.612400000000000
H      -0.937100000000000      5.410700000000000      1.611200000000000
H      -2.424600000000000      5.813900000000000      0.778100000000000
H       0.979000000000000      5.377100000000000     -0.017000000000000
H       0.657300000000000      3.707500000000000      0.369500000000000
H      -1.136800000000000      5.707700000000000     -1.062300000000000
H      -1.581300000000000      4.018000000000000     -1.021700000000000
