84

O       4.263100000000000      0.868400000000000      0.426900000000000
N       5.574300000000000      1.367800000000000     -0.011100000000000
C       6.418100000000000      0.163000000000000     -0.204700000000000
C       6.985600000000000     -0.271500000000000      1.200300000000000
C       7.649300000000000      0.345600000000000     -1.147100000000000
C       9.132899999999999      1.006200000000000      0.793600000000000
C       8.965100000000000     -1.410500000000000      0.117800000000000
C       7.942600000000000      0.814900000000000      1.748000000000000
C       7.790800000000000     -1.585900000000000      1.091800000000000
C       8.612600000000000      1.419800000000000     -0.590900000000000
C       8.434400000000000     -0.981200000000000     -1.260000000000000
C       9.900399999999999     -0.318900000000000      0.662500000000000
C       5.395000000000000     -0.835900000000000     -0.746200000000000
C       4.153100000000000     -0.511500000000000      0.057600000000000
C       5.269900000000000      2.161000000000000     -1.199600000000000
C       2.864000000000000     -0.737900000000000     -0.711500000000000
C       1.639300000000000     -0.433300000000000      0.151300000000000
C       0.313400000000000     -0.559500000000000     -0.605300000000000
C      -0.947000000000000     -0.212300000000000      0.192900000000000
C      -2.243700000000000     -0.439200000000000     -0.586600000000000
C      -3.466400000000000     -0.046400000000000      0.245700000000000
C      -4.765800000000000     -0.303200000000000     -0.519500000000000
C      -5.990100000000000      0.058100000000000      0.325000000000000
C      -7.288700000000000     -0.229900000000000     -0.431500000000000
C      -8.548800000000000      0.085100000000000      0.380000000000000
C      -9.847400000000000     -0.226100000000000     -0.367400000000000
C     -11.072200000000000      0.175000000000000      0.459800000000000
C     -12.369800000000000     -0.101000000000000     -0.302600000000000
C     -13.630300000000000      0.261100000000000      0.488700000000000
C     -14.959199999999999      0.026500000000000     -0.233400000000000
C     -16.174299999999999      0.451800000000000      0.575600000000000
H       6.177400000000000     -0.417500000000000      1.927000000000000
H       7.325700000000000      0.638500000000000     -2.153000000000000
H       9.801299999999999      1.781000000000000      1.185300000000000
H       9.515300000000000     -2.353600000000000      0.026300000000000
H       7.413100000000000      1.764800000000000      1.885100000000000
H       8.307700000000001      0.519700000000000      2.740000000000000
H       8.171099999999999     -1.867500000000000      2.082200000000000
H       7.152900000000000     -2.415100000000000      0.770400000000000
H       9.455900000000000      1.551300000000000     -1.280700000000000
H       8.119500000000000      2.394800000000000     -0.520400000000000
H       7.801700000000000     -1.769600000000000     -1.683300000000000
H       9.273899999999999     -0.854200000000000     -1.955300000000000
H      10.759600000000001     -0.191600000000000     -0.007400000000000
H      10.300500000000000     -0.619000000000000      1.638800000000000
H       5.221600000000000     -0.663900000000000     -1.816500000000000
H       5.662100000000000     -1.890200000000000     -0.644800000000000
H       4.140700000000000     -1.097800000000000      0.984300000000000
H       4.579300000000000      2.969900000000000     -0.934500000000000
H       4.806200000000000      1.579800000000000     -2.002800000000000
H       6.163500000000000      2.646600000000000     -1.600500000000000
H       2.837800000000000     -0.085800000000000     -1.593400000000000
H       2.814900000000000     -1.774300000000000     -1.065500000000000
H       1.624100000000000     -1.109300000000000      1.015000000000000
H       1.709700000000000      0.586000000000000      0.550200000000000
H       0.350200000000000      0.085000000000000     -1.492900000000000
H       0.223100000000000     -1.588700000000000     -0.975500000000000
H      -0.888400000000000      0.836500000000000      0.509100000000000
H      -0.966000000000000     -0.817500000000000      1.107700000000000
H      -2.223700000000000      0.149400000000000     -1.511700000000000
H      -2.315500000000000     -1.494600000000000     -0.875700000000000
H      -3.402600000000000      1.014200000000000      0.517500000000000
H      -3.472400000000000     -0.620200000000000      1.180500000000000
H      -4.770300000000000      0.284600000000000     -1.445400000000000
H      -4.818400000000000     -1.360400000000000     -0.807000000000000
H      -5.951700000000000      1.119400000000000      0.598100000000000
H      -5.976700000000000     -0.517400000000000      1.258500000000000
H      -7.304400000000000      0.354800000000000     -1.359600000000000
H      -7.309700000000000     -1.287300000000000     -0.723400000000000
H      -8.526500000000000     -0.486300000000000      1.316300000000000
H      -8.534700000000001      1.146600000000000      0.657000000000000
H      -9.890000000000001     -1.296700000000000     -0.600300000000000
H      -9.856600000000000      0.314000000000000     -1.321900000000000
H     -11.017099999999999      1.241100000000000      0.710800000000000
H     -11.075900000000001     -0.380800000000000      1.405100000000000
H     -12.414199999999999     -1.163300000000000     -0.572700000000000
H     -12.365000000000000      0.464400000000000     -1.242600000000000
H     -13.634300000000000     -0.310300000000000      1.425700000000000
H     -13.569800000000001      1.319300000000000      0.773600000000000
H     -15.050800000000001     -1.037100000000000     -0.483600000000000
H     -14.956099999999999      0.576600000000000     -1.181900000000000
H     -17.092700000000001      0.260200000000000      0.012100000000000
H     -16.229500000000002     -0.103300000000000      1.517300000000000
H     -16.133700000000001      1.520400000000000      0.808500000000000
