84

N       4.215900000000000     -0.169500000000000      0.986900000000000
N      -3.275000000000000      0.037500000000000     -1.223200000000000
C       1.914600000000000      0.547100000000000      0.238400000000000
C      -0.918400000000000     -0.139500000000000     -0.341100000000000
C       1.343500000000000     -0.839700000000000      0.559900000000000
C       1.156100000000000      1.191000000000000     -0.929100000000000
C      -0.159600000000000     -0.783500000000000      0.826100000000000
C      -0.347100000000000      1.247200000000000     -0.663300000000000
C       3.413200000000000      0.456900000000000     -0.073400000000000
C      -2.419500000000000     -0.048500000000000     -0.027400000000000
C       3.973300000000000      1.848600000000000     -0.462500000000000
C      -2.681300000000000      1.125400000000000      0.961800000000000
C       5.504800000000000      1.937100000000000     -0.590800000000000
C      -4.081200000000000      1.143400000000000      1.603700000000000
C       4.170900000000000     -1.632700000000000      0.978100000000000
C      -3.516200000000000     -1.227600000000000     -1.930700000000000
C       6.134300000000000      0.925500000000000     -1.559100000000000
C       4.032500000000000      0.382700000000000      2.324300000000000
C      -2.874600000000000      1.075800000000000     -2.175900000000000
C       5.576800000000000     -2.241800000000000      1.123700000000000
C      -5.186200000000000      1.720400000000000      0.712600000000000
C      -4.196300000000000     -2.353800000000000     -1.132300000000000
C       7.444900000000000      0.313600000000000     -1.042300000000000
C       6.528100000000000     -1.872200000000000     -0.027700000000000
C       7.303500000000000     -0.567100000000000      0.208200000000000
C      -6.603900000000000      1.521800000000000      1.257900000000000
C      -5.363900000000000     -1.954800000000000     -0.221500000000000
C      -7.112400000000000      0.078800000000000      1.393500000000000
C      -6.439800000000000     -1.087100000000000     -0.873500000000000
C      -7.537000000000000     -0.634800000000000      0.098900000000000
H       1.760700000000000      1.192300000000000      1.114500000000000
H      -0.762000000000000     -0.790900000000000     -1.211200000000000
H       1.762700000000000     -1.252700000000000      1.475000000000000
H       1.533100000000000     -1.539000000000000     -0.263000000000000
H       1.341200000000000      0.634600000000000     -1.856800000000000
H       1.487400000000000      2.221300000000000     -1.095400000000000
H      -0.321600000000000     -0.235000000000000      1.760100000000000
H      -0.529800000000000     -1.802600000000000      0.993000000000000
H      -0.761300000000000      1.748600000000000     -1.529200000000000
H      -0.466700000000000      1.933000000000000      0.182700000000000
H       3.516400000000000     -0.154800000000000     -0.979900000000000
H      -2.696000000000000     -0.955200000000000      0.522100000000000
H       3.648700000000000      2.605300000000000      0.263000000000000
H       3.568800000000000      2.146500000000000     -1.437100000000000
H      -2.531600000000000      2.103300000000000      0.491700000000000
H      -1.972100000000000      1.069200000000000      1.794800000000000
H       5.947100000000000      1.864700000000000      0.407700000000000
H       5.758200000000000      2.947900000000000     -0.936800000000000
H      -4.322500000000000      0.138000000000000      1.955600000000000
H      -4.030400000000000      1.766300000000000      2.506700000000000
H       3.755800000000000     -2.030100000000000      0.044300000000000
H       3.566100000000000     -2.036500000000000      1.797600000000000
H      -2.583600000000000     -1.618000000000000     -2.357200000000000
H      -4.171600000000000     -1.023500000000000     -2.788500000000000
H       6.352400000000000      1.448700000000000     -2.499300000000000
H       5.441900000000000      0.126700000000000     -1.831900000000000
H       3.058800000000000      0.142400000000000      2.761900000000000
H       4.802600000000000     -0.002700000000000      3.002000000000000
H       4.147800000000000      1.471500000000000      2.324300000000000
H      -2.765700000000000      2.058300000000000     -1.709200000000000
H      -3.690100000000000      1.220100000000000     -2.897300000000000
H      -2.000900000000000      0.797100000000000     -2.773400000000000
H       5.459000000000000     -3.333200000000000      1.126900000000000
H       6.020900000000000     -1.978000000000000      2.090900000000000
H      -5.140900000000000      1.331600000000000     -0.299500000000000
H      -5.009600000000000      2.799600000000000      0.613900000000000
H      -3.443600000000000     -2.864200000000000     -0.518200000000000
H      -4.554900000000000     -3.104500000000000     -1.848400000000000
H       8.149699999999999      1.124800000000000     -0.821400000000000
H       7.897200000000000     -0.280600000000000     -1.845800000000000
H       5.976600000000000     -1.858900000000000     -0.973500000000000
H       7.266500000000000     -2.678600000000000     -0.127900000000000
H       6.877200000000000      0.011200000000000      1.032000000000000
H       8.314299999999999     -0.834500000000000      0.543800000000000
H      -7.302800000000000      2.083100000000000      0.625300000000000
H      -6.650900000000000      1.990200000000000      2.249700000000000
H      -4.950100000000000     -1.452000000000000      0.651400000000000
H      -5.830400000000000     -2.871800000000000      0.160600000000000
H      -8.016200000000000      0.133400000000000      2.016800000000000
H      -6.415500000000000     -0.534500000000000      1.970500000000000
H      -6.912200000000000     -1.664700000000000     -1.678500000000000
H      -6.010700000000000     -0.210700000000000     -1.361100000000000
H      -8.105900000000000     -1.527800000000000      0.390700000000000
H      -8.243000000000000      0.004600000000000     -0.445600000000000
