84

N       2.558400000000000     -1.645600000000000     -0.208700000000000
N      -1.496700000000000      0.439500000000000      1.271300000000000
C      -0.880700000000000     -1.898400000000000      1.459800000000000
C      -0.583700000000000     -3.830600000000000     -0.332000000000000
C      -1.173800000000000     -3.357900000000000      1.022900000000000
C       0.608800000000000     -1.558100000000000      1.243800000000000
C       0.891300000000000     -3.395700000000000     -0.460500000000000
C       1.115000000000000     -1.915100000000000     -0.153800000000000
C      -1.781600000000000     -0.882000000000000      0.734500000000000
C      -1.198200000000000     -1.775600000000000      2.968000000000000
C      -0.645000000000000     -5.375100000000000     -0.369700000000000
C      -1.406100000000000     -3.326600000000000     -1.532100000000000
C       2.974600000000000     -0.479600000000000     -0.570900000000000
C      -2.144500000000000      1.459900000000000      0.822800000000000
C       1.921500000000000      0.557900000000000     -0.923100000000000
C       4.430600000000000     -0.055300000000000     -0.674800000000000
C      -3.182300000000000      1.204700000000000     -0.257500000000000
C      -1.958900000000000      2.896700000000000      1.283100000000000
C       1.561900000000000      0.467400000000000     -2.403700000000000
C       4.906900000000000      0.544100000000000      0.647700000000000
C      -4.550300000000000      0.951100000000000      0.370100000000000
C      -0.880700000000000      3.588300000000000      0.450000000000000
C       0.474500000000000      1.474700000000000     -2.773600000000000
C       6.375900000000000      0.969200000000000      0.623100000000000
C      -5.619600000000000      0.731700000000000     -0.698900000000000
C      -0.660200000000000      5.050100000000000      0.842200000000000
C       0.085800000000000      1.361600000000000     -4.239000000000000
C       6.866800000000000      1.526300000000000      1.950300000000000
C      -6.991000000000000      0.516900000000000     -0.078700000000000
C       0.381200000000000      5.755400000000000     -0.012700000000000
H      -2.257400000000000     -3.538300000000000      1.038600000000000
H      -0.761800000000000     -4.017900000000000      1.800600000000000
H       1.201300000000000     -2.137700000000000      1.968500000000000
H       0.822000000000000     -0.515900000000000      1.503600000000000
H       1.266000000000000     -3.623500000000000     -1.467600000000000
H       1.507700000000000     -3.993500000000000      0.226200000000000
H       0.548200000000000     -1.373200000000000     -0.906200000000000
H      -2.825000000000000     -1.174300000000000      0.882200000000000
H      -1.550700000000000     -0.897500000000000     -0.327800000000000
H      -2.263600000000000     -1.943200000000000      3.163600000000000
H      -0.928600000000000     -0.795200000000000      3.375600000000000
H      -0.638900000000000     -2.518600000000000      3.549000000000000
H      -0.224200000000000     -5.767300000000000     -1.302600000000000
H      -0.078000000000000     -5.818000000000000      0.457000000000000
H      -1.678900000000000     -5.730300000000000     -0.292000000000000
H      -1.254700000000000     -2.271400000000000     -1.757400000000000
H      -1.128500000000000     -3.866900000000000     -2.445500000000000
H      -2.477900000000000     -3.489100000000000     -1.372800000000000
H       2.367600000000000      1.544600000000000     -0.738600000000000
H       1.039200000000000      0.546200000000000     -0.286100000000000
H       4.542700000000000      0.664400000000000     -1.492300000000000
H       5.026000000000000     -0.940900000000000     -0.923500000000000
H      -2.909700000000000      0.421800000000000     -0.966300000000000
H      -3.241400000000000      2.116100000000000     -0.867300000000000
H      -2.912400000000000      3.429300000000000      1.205900000000000
H      -1.667300000000000      2.882100000000000      2.339200000000000
H       2.458000000000000      0.668400000000000     -3.005300000000000
H       1.242200000000000     -0.542300000000000     -2.683000000000000
H       4.284000000000000      1.410300000000000      0.903700000000000
H       4.754900000000000     -0.188000000000000      1.451200000000000
H      -4.524900000000000      0.090500000000000      1.046200000000000
H      -4.830800000000000      1.811500000000000      0.991000000000000
H      -1.153100000000000      3.537700000000000     -0.611800000000000
H       0.064100000000000      3.038400000000000      0.548100000000000
H       0.822700000000000      2.493500000000000     -2.567500000000000
H      -0.414900000000000      1.303800000000000     -2.155700000000000
H       6.998500000000000      0.108700000000000      0.350500000000000
H       6.521500000000000      1.726700000000000     -0.156200000000000
H      -5.661000000000000      1.598100000000000     -1.369200000000000
H      -5.360200000000000     -0.140500000000000     -1.310200000000000
H      -1.608600000000000      5.594600000000000      0.762300000000000
H      -0.351500000000000      5.101200000000000      1.893100000000000
H      -0.302500000000000      0.363500000000000     -4.466000000000000
H      -0.692700000000000      2.091700000000000     -4.481600000000000
H       0.945700000000000      1.552600000000000     -4.888800000000000
H       6.290200000000000      2.410800000000000      2.239000000000000
H       7.919900000000000      1.814500000000000      1.875900000000000
H       6.772400000000000      0.780100000000000      2.745600000000000
H      -6.993200000000000     -0.362000000000000      0.573900000000000
H      -7.740400000000000      0.360800000000000     -0.861000000000000
H      -7.294400000000000      1.386000000000000      0.513700000000000
H       1.353300000000000      5.258900000000000      0.068800000000000
H       0.084400000000000      5.757600000000000     -1.066300000000000
H       0.499700000000000      6.794000000000000      0.311000000000000
