84

N       2.046400000000000     -0.043600000000000     -0.736900000000000
N      -1.358800000000000      0.856800000000000      0.498300000000000
C       3.358500000000000      0.521100000000000     -0.427400000000000
C       2.099700000000000     -1.504100000000000     -0.695400000000000
C      -1.659400000000000     -0.161600000000000      1.503300000000000
C       1.039300000000000      0.459600000000000      0.190900000000000
C      -0.347700000000000      0.369200000000000     -0.438400000000000
C       3.608700000000000      0.459800000000000      1.083400000000000
C       3.440300000000000      1.962000000000000     -0.943200000000000
C       0.923700000000000     -2.111000000000000     -1.477500000000000
C       3.437100000000000     -2.009800000000000     -1.236100000000000
C      -2.575500000000000      1.241600000000000     -0.218500000000000
C      -0.583400000000000     -0.172700000000000      2.601100000000000
C      -3.048900000000000      0.063800000000000      2.099400000000000
C       4.940000000000000      1.111200000000000      1.453800000000000
C       4.771500000000000      2.612100000000000     -0.570000000000000
C       1.169600000000000     -3.556900000000000     -1.921100000000000
C       3.561500000000000     -3.531600000000000     -1.105900000000000
C       5.030300000000000      2.542600000000000      0.932300000000000
C       2.215800000000000     -4.257900000000000     -1.065900000000000
C      -1.058900000000000     -0.806300000000000      3.912700000000000
C      -3.432200000000000     -1.050400000000000      3.079200000000000
C      -2.230100000000000     -1.757000000000000      3.708500000000000
C      -3.190600000000000      0.004200000000000     -0.901700000000000
C      -2.291400000000000      2.333100000000000     -1.270700000000000
C      -4.683500000000000      0.113300000000000     -1.244900000000000
C      -1.699000000000000      3.616400000000000     -0.679800000000000
C      -5.282000000000000     -1.081300000000000     -1.991500000000000
C      -1.461600000000000      4.664100000000000     -1.757300000000000
C      -6.739100000000000     -0.886900000000000     -2.380700000000000
H       4.193200000000000      0.090100000000000     -0.979500000000000
H       2.034000000000000     -1.861300000000000      0.343100000000000
H      -1.655200000000000     -1.167400000000000      1.059400000000000
H       1.164300000000000     -0.069900000000000      1.113300000000000
H       1.178700000000000      1.522800000000000      0.420600000000000
H      -0.668600000000000     -0.589100000000000     -0.806800000000000
H      -0.259500000000000      0.994000000000000     -1.329900000000000
H       2.863000000000000      1.003100000000000      1.673800000000000
H       3.622800000000000     -0.574000000000000      1.447100000000000
H       3.328800000000000      1.976700000000000     -2.035200000000000
H       2.639300000000000      2.594200000000000     -0.544800000000000
H       0.078200000000000     -2.218300000000000     -0.792700000000000
H       0.630500000000000     -1.515000000000000     -2.349100000000000
H       3.566100000000000     -1.723500000000000     -2.288100000000000
H       4.314700000000000     -1.679500000000000     -0.673800000000000
H      -3.293400000000000      1.726000000000000      0.453200000000000
H      -0.151700000000000      0.813900000000000      2.802500000000000
H       0.201500000000000     -0.873600000000000      2.312600000000000
H      -3.898800000000000      0.098300000000000      1.422000000000000
H      -3.053800000000000      1.015700000000000      2.650300000000000
H       5.064600000000000      1.107300000000000      2.542700000000000
H       5.763800000000000      0.518200000000000      1.037300000000000
H       5.587600000000000      2.110800000000000     -1.104900000000000
H       4.774600000000000      3.658400000000000     -0.896100000000000
H       0.228400000000000     -4.118900000000000     -1.909700000000000
H       1.513300000000000     -3.553100000000000     -2.963500000000000
H       4.158700000000000     -3.907000000000000     -1.946100000000000
H       4.120400000000000     -3.790300000000000     -0.197500000000000
H       6.021000000000000      2.954400000000000      1.155200000000000
H       4.298400000000000      3.168800000000000      1.457400000000000
H       1.858600000000000     -4.310300000000000     -0.029700000000000
H       2.348000000000000     -5.292800000000000     -1.401400000000000
H      -1.371100000000000     -0.006800000000000      4.597000000000000
H      -0.228100000000000     -1.324800000000000      4.405600000000000
H      -4.046200000000000     -1.802500000000000      2.568000000000000
H      -4.064800000000000     -0.624000000000000      3.867500000000000
H      -1.913800000000000     -2.586500000000000      3.063700000000000
H      -2.527100000000000     -2.203100000000000      4.664400000000000
H      -3.095000000000000     -0.928700000000000     -0.340900000000000
H      -2.659000000000000     -0.188700000000000     -1.844500000000000
H      -1.699300000000000      1.984800000000000     -2.122900000000000
H      -3.253100000000000      2.614400000000000     -1.722400000000000
H      -5.259400000000000      0.274900000000000     -0.326200000000000
H      -4.839400000000000      1.006900000000000     -1.860900000000000
H      -0.744300000000000      3.407100000000000     -0.185200000000000
H      -2.376500000000000      4.024900000000000      0.078900000000000
H      -5.195400000000000     -1.977800000000000     -1.366300000000000
H      -4.697200000000000     -1.269600000000000     -2.899700000000000
H      -0.758200000000000      4.297700000000000     -2.511900000000000
H      -2.397400000000000      4.930500000000000     -2.259000000000000
H      -1.042300000000000      5.573400000000000     -1.315500000000000
H      -6.855000000000000     -0.021500000000000     -3.040900000000000
H      -7.113400000000000     -1.770200000000000     -2.907400000000000
H      -7.361500000000000     -0.728600000000000     -1.494300000000000
