85

O      -1.418900000000000     -1.962700000000000      1.914300000000000
N      -1.833300000000000     -3.319600000000000      0.074100000000000
C       2.235600000000000      1.204000000000000      2.222000000000000
C       3.372700000000000      0.664900000000000      3.092700000000000
C       2.059300000000000      2.713700000000000      2.412500000000000
C       3.613200000000000     -0.839900000000000      2.925700000000000
C       0.844400000000000      3.277300000000000      1.668400000000000
C       3.991700000000000     -1.305100000000000      1.513800000000000
C       0.974300000000000      3.208900000000000      0.143200000000000
C       5.220700000000000     -0.587500000000000      0.952000000000000
C      -0.202800000000000      3.858400000000000     -0.598100000000000
C       5.708500000000000     -1.151200000000000     -0.386000000000000
C      -1.536100000000000      3.171800000000000     -0.297100000000000
C       4.695500000000000     -1.129600000000000     -1.536400000000000
C      -2.668900000000000      3.660800000000000     -1.205700000000000
C       4.054000000000000      0.240700000000000     -1.764400000000000
C      -4.050100000000000      3.149400000000000     -0.768300000000000
C       3.314500000000000      0.365500000000000     -3.098100000000000
C      -4.139100000000000      1.622600000000000     -0.726100000000000
C       2.264000000000000     -0.706400000000000     -3.394500000000000
C      -5.495100000000000      1.129400000000000     -0.210700000000000
C       1.159600000000000     -0.818800000000000     -2.339100000000000
C      -5.576300000000000     -0.401700000000000     -0.122500000000000
C       0.042700000000000     -1.738700000000000     -2.839900000000000
C      -4.596000000000000     -0.994400000000000      0.894700000000000
C      -1.064700000000000     -1.974200000000000     -1.813600000000000
C      -4.636700000000000     -2.525200000000000      0.918200000000000
C      -0.666700000000000     -2.958600000000000     -0.713800000000000
C      -3.524300000000000     -3.116600000000000      1.792000000000000
C      -2.141400000000000     -2.737200000000000      1.290600000000000
H       1.303900000000000      0.685000000000000      2.477100000000000
H       2.445600000000000      0.997000000000000      1.169700000000000
H       4.296800000000000      1.216600000000000      2.885400000000000
H       3.134600000000000      0.856400000000000      4.146800000000000
H       2.966700000000000      3.237500000000000      2.088600000000000
H       1.934200000000000      2.927600000000000      3.481200000000000
H       4.410200000000000     -1.138100000000000      3.618500000000000
H       2.713300000000000     -1.382900000000000      3.240600000000000
H       0.711400000000000      4.324500000000000      1.966800000000000
H      -0.048700000000000      2.736400000000000      2.000400000000000
H       4.189900000000000     -2.383500000000000      1.550800000000000
H       3.133600000000000     -1.174600000000000      0.846300000000000
H       1.060100000000000      2.166000000000000     -0.182200000000000
H       1.898500000000000      3.713400000000000     -0.163600000000000
H       5.015900000000000      0.482000000000000      0.835100000000000
H       6.042700000000000     -0.667000000000000      1.674400000000000
H      -0.001100000000000      3.806500000000000     -1.675000000000000
H      -0.265900000000000      4.921200000000000     -0.335800000000000
H       6.594800000000000     -0.580600000000000     -0.691600000000000
H       6.046300000000000     -2.184600000000000     -0.239400000000000
H      -1.816200000000000      3.351600000000000      0.746900000000000
H      -1.404000000000000      2.091300000000000     -0.422500000000000
H       5.214700000000000     -1.447000000000000     -2.449200000000000
H       3.918800000000000     -1.878500000000000     -1.345800000000000
H      -2.471400000000000      3.346500000000000     -2.237600000000000
H      -2.691600000000000      4.757300000000000     -1.205000000000000
H       3.358200000000000      0.467100000000000     -0.950500000000000
H       4.829500000000000      1.016300000000000     -1.735100000000000
H      -4.807000000000000      3.540600000000000     -1.458600000000000
H      -4.283600000000000      3.557500000000000      0.222900000000000
H       4.052400000000000      0.353000000000000     -3.910200000000000
H       2.836300000000000      1.352500000000000     -3.136000000000000
H      -3.950000000000000      1.213100000000000     -1.725500000000000
H      -3.354200000000000      1.247100000000000     -0.067100000000000
H       1.811700000000000     -0.467800000000000     -4.365700000000000
H       2.752000000000000     -1.680700000000000     -3.517300000000000
H      -6.286200000000000      1.485400000000000     -0.881600000000000
H      -5.696300000000000      1.560500000000000      0.777500000000000
H       1.575500000000000     -1.207400000000000     -1.404200000000000
H       0.745400000000000      0.173600000000000     -2.124800000000000
H      -5.386400000000000     -0.829900000000000     -1.114300000000000
H      -6.598400000000000     -0.685000000000000      0.156600000000000
H      -0.408300000000000     -1.282200000000000     -3.730300000000000
H       0.460400000000000     -2.701100000000000     -3.159800000000000
H      -4.817800000000000     -0.604300000000000      1.895200000000000
H      -3.580900000000000     -0.677200000000000      0.645000000000000
H      -1.388800000000000     -1.023300000000000     -1.372600000000000
H      -1.937400000000000     -2.377300000000000     -2.344600000000000
H      -4.549500000000000     -2.909700000000000     -0.104900000000000
H      -5.608700000000000     -2.858100000000000      1.300900000000000
H       0.099600000000000     -2.528600000000000     -0.061400000000000
H      -0.277800000000000     -3.886500000000000     -1.145100000000000
H      -3.603500000000000     -4.209800000000000      1.805500000000000
H      -3.627200000000000     -2.770100000000000      2.826700000000000
H      -2.478400000000000     -3.992100000000000     -0.330000000000000
