85

O       3.536300000000000     -3.132200000000000     -1.031900000000000
O       2.528200000000000     -2.844300000000000      1.024900000000000
C      -2.417700000000000      0.661900000000000     -3.064800000000000
C      -2.461600000000000      1.638600000000000     -1.891500000000000
C      -3.736200000000000     -0.080400000000000     -3.313200000000000
C      -1.142500000000000      2.402100000000000     -1.748600000000000
C      -4.121200000000000     -1.083000000000000     -2.219200000000000
C      -1.191600000000000      3.363700000000000     -0.558300000000000
C      -5.090000000000000     -0.507600000000000     -1.181700000000000
C       0.098300000000000      4.168600000000000     -0.379400000000000
C      -5.427500000000000     -1.547300000000000     -0.109800000000000
C       1.270100000000000      3.322800000000000      0.127600000000000
C      -6.335100000000000     -1.002500000000000      0.994100000000000
C       2.525700000000000      4.178300000000000      0.316400000000000
C      -5.738500000000000      0.096000000000000      1.884500000000000
C       3.688200000000000      3.428500000000000      0.974200000000000
C      -4.531100000000000     -0.346100000000000      2.720100000000000
C       4.173700000000000      2.222000000000000      0.167000000000000
C      -3.185500000000000      0.034100000000000      2.093300000000000
C       5.441600000000000      1.619100000000000      0.779300000000000
C      -2.019700000000000     -0.459200000000000      2.954400000000000
C       5.976100000000000      0.414400000000000     -0.001900000000000
C      -0.645000000000000     -0.020300000000000      2.440700000000000
C       5.074500000000000     -0.817300000000000      0.110300000000000
C      -0.291800000000000     -0.452800000000000      1.014700000000000
C       5.668100000000000     -2.018800000000000     -0.631100000000000
C      -0.342300000000000     -1.965700000000000      0.798300000000000
C       4.842200000000000     -3.290600000000000     -0.446800000000000
C       0.085700000000000     -2.324200000000000     -0.596000000000000
C       1.281000000000000     -2.744000000000000     -1.034000000000000
C       2.487400000000000     -2.913800000000000     -0.191400000000000
H      -1.612400000000000     -0.066700000000000     -2.909800000000000
H      -2.164300000000000      1.216200000000000     -3.977300000000000
H      -3.286900000000000      2.346900000000000     -2.030000000000000
H      -2.647300000000000      1.093800000000000     -0.962200000000000
H      -3.611700000000000     -0.642300000000000     -4.248100000000000
H      -4.547700000000000      0.635100000000000     -3.491000000000000
H      -0.325700000000000      1.683300000000000     -1.622500000000000
H      -0.940200000000000      2.965100000000000     -2.667600000000000
H      -3.223100000000000     -1.474500000000000     -1.727300000000000
H      -4.612700000000000     -1.939400000000000     -2.698900000000000
H      -2.018500000000000      4.068900000000000     -0.709300000000000
H      -1.412700000000000      2.811100000000000      0.362900000000000
H      -6.013600000000000     -0.189200000000000     -1.680500000000000
H      -4.661300000000000      0.382500000000000     -0.718400000000000
H       0.367000000000000      4.653300000000000     -1.325800000000000
H      -0.096500000000000      4.971000000000000      0.343000000000000
H      -4.513000000000000     -1.962900000000000      0.326400000000000
H      -5.942300000000000     -2.389000000000000     -0.590600000000000
H       0.997000000000000      2.853300000000000      1.080100000000000
H       1.480400000000000      2.519400000000000     -0.585000000000000
H      -6.642100000000000     -1.840600000000000      1.632500000000000
H      -7.254900000000000     -0.615800000000000      0.537300000000000
H       2.849100000000000      4.571900000000000     -0.655100000000000
H       2.282900000000000      5.045800000000000      0.942500000000000
H      -6.531100000000000      0.395700000000000      2.583100000000000
H      -5.504100000000000      0.991500000000000      1.299000000000000
H       4.517300000000000      4.134600000000000      1.106300000000000
H       3.390000000000000      3.101000000000000      1.977700000000000
H      -4.572800000000000     -1.424600000000000      2.912900000000000
H      -4.596000000000000      0.147000000000000      3.698800000000000
H       4.376500000000000      2.525500000000000     -0.867000000000000
H       3.382500000000000      1.466600000000000      0.137900000000000
H      -3.106400000000000     -0.393100000000000      1.091200000000000
H      -3.127300000000000      1.123900000000000      1.985300000000000
H       6.224200000000000      2.387700000000000      0.802000000000000
H       5.252700000000000      1.329500000000000      1.820100000000000
H      -2.055600000000000     -1.551900000000000      3.034600000000000
H      -2.138400000000000     -0.073200000000000      3.974700000000000
H       6.110300000000000      0.685800000000000     -1.055900000000000
H       6.969700000000000      0.164500000000000      0.390300000000000
H       0.119000000000000     -0.407900000000000      3.126300000000000
H      -0.579500000000000      1.073600000000000      2.495200000000000
H       4.934500000000000     -1.071300000000000      1.167800000000000
H       4.088000000000000     -0.589700000000000     -0.305400000000000
H       0.718800000000000     -0.085600000000000      0.791700000000000
H      -0.958000000000000      0.045000000000000      0.303200000000000
H       5.727000000000000     -1.778200000000000     -1.699600000000000
H       6.688400000000000     -2.205600000000000     -0.276700000000000
H      -1.366900000000000     -2.332900000000000      0.931000000000000
H       0.254800000000000     -2.479500000000000      1.556100000000000
H       4.783200000000000     -3.575100000000000      0.610000000000000
H       5.326700000000000     -4.118100000000000     -0.975800000000000
H      -0.695900000000000     -2.220500000000000     -1.348100000000000
H       1.395700000000000     -2.949300000000000     -2.095700000000000
