85

O       2.563600000000000      1.438200000000000      1.779400000000000
O      -5.433500000000000      0.975600000000000      1.919700000000000
C       1.303200000000000     -2.302100000000000      0.286700000000000
C       0.006000000000000     -2.274800000000000     -0.555300000000000
C      -0.828400000000000     -1.004200000000000     -0.465300000000000
C       2.035200000000000     -3.500000000000000     -0.344000000000000
C       0.479100000000000     -2.565100000000000     -1.984900000000000
C      -2.011400000000000     -0.959600000000000     -1.470300000000000
C       1.748100000000000     -3.406100000000000     -1.841700000000000
C       2.150600000000000     -1.024000000000000      0.154200000000000
C      -2.728800000000000      0.449300000000000     -1.403500000000000
C       1.017200000000000     -2.556200000000000      1.770800000000000
C      -1.316500000000000     -0.778800000000000      0.971800000000000
C       3.213600000000000     -0.858700000000000      1.264100000000000
C      -2.988100000000000      0.874900000000000      0.050800000000000
C      -2.347500000000000      0.302700000000000      1.088100000000000
C      -2.979000000000000     -2.143000000000000     -1.266200000000000
C      -4.039600000000000      0.414800000000000     -2.223700000000000
C      -1.817200000000000      1.516800000000000     -2.060800000000000
C       0.148800000000000     -3.782600000000000      1.959000000000000
C       3.672100000000000      0.612100000000000      1.428300000000000
C      -3.972400000000000      1.986800000000000      0.310700000000000
C       4.373900000000000     -1.820000000000000      0.968300000000000
C       4.369300000000000      1.183900000000000      0.182000000000000
C      -5.379200000000000      1.452100000000000      0.575800000000000
C       4.797100000000000      2.644600000000000      0.388000000000000
C      -6.412500000000000      2.570100000000000      0.385800000000000
C       5.533200000000000      3.243700000000000     -0.825400000000000
C      -7.836000000000000      2.116600000000000      0.682100000000000
C       5.866000000000000      4.713300000000000     -0.555700000000000
C       6.813000000000000      2.480100000000000     -1.168900000000000
H      -0.619100000000000     -3.132600000000000     -0.297500000000000
H      -0.192000000000000     -0.160600000000000     -0.745300000000000
H       1.641500000000000     -4.465800000000000     -0.021800000000000
H       3.106600000000000     -3.563500000000000     -0.185100000000000
H       0.720500000000000     -1.641500000000000     -2.524800000000000
H      -0.278400000000000     -3.098900000000000     -2.568600000000000
H      -1.614900000000000     -1.066000000000000     -2.488600000000000
H       1.621400000000000     -4.400900000000000     -2.282000000000000
H       2.579300000000000     -2.922000000000000     -2.367000000000000
H       2.609400000000000     -0.949200000000000     -0.838900000000000
H       1.502700000000000     -0.150600000000000      0.241100000000000
H       1.947200000000000     -2.842200000000000      2.278200000000000
H       0.629200000000000     -1.715600000000000      2.340400000000000
H      -0.489900000000000     -0.406300000000000      1.576900000000000
H      -1.729600000000000     -1.684100000000000      1.422000000000000
H       2.813300000000000     -1.083500000000000      2.254700000000000
H      -2.569800000000000      0.633600000000000      2.100300000000000
H      -3.515400000000000     -2.078200000000000     -0.314900000000000
H      -2.466500000000000     -3.107400000000000     -1.300000000000000
H      -3.722100000000000     -2.185700000000000     -2.068800000000000
H      -3.838900000000000      0.066100000000000     -3.244400000000000
H      -4.499900000000000      1.403900000000000     -2.322000000000000
H      -4.788300000000000     -0.257100000000000     -1.795800000000000
H      -1.498500000000000      1.200400000000000     -3.060700000000000
H      -0.917200000000000      1.720700000000000     -1.471500000000000
H      -2.337500000000000      2.474500000000000     -2.179100000000000
H       0.567800000000000     -4.712000000000000      1.571900000000000
H       0.044800000000000     -3.954400000000000      3.038900000000000
H      -0.874800000000000     -3.675600000000000      1.598100000000000
H       4.375000000000000      0.651100000000000      2.271100000000000
H      -3.969900000000000      2.684200000000000     -0.534100000000000
H      -3.630500000000000      2.577900000000000      1.171900000000000
H       4.628400000000000     -1.864100000000000     -0.095300000000000
H       5.275500000000000     -1.493300000000000      1.500200000000000
H       4.167500000000000     -2.823900000000000      1.347800000000000
H       3.689100000000000      1.153100000000000     -0.676900000000000
H       5.238300000000000      0.564500000000000     -0.056300000000000
H      -5.642100000000000      0.610400000000000     -0.067000000000000
H       2.911100000000000      2.234800000000000      2.214400000000000
H       5.438500000000000      2.711200000000000      1.276100000000000
H       3.912600000000000      3.261400000000000      0.587000000000000
H      -6.366600000000000      2.945800000000000     -0.643100000000000
H      -6.179800000000000      3.409100000000000      1.053300000000000
H       4.866200000000000      3.203200000000000     -1.695800000000000
H      -5.275300000000000      1.729100000000000      2.513700000000000
H      -8.119800000000000      1.277200000000000      0.039500000000000
H      -8.538300000000000      2.936200000000000      0.500200000000000
H      -7.946400000000000      1.805000000000000      1.725400000000000
H       6.349900000000000      5.169300000000000     -1.426000000000000
H       4.956800000000000      5.285800000000000     -0.343500000000000
H       6.540700000000000      4.817700000000000      0.300800000000000
H       6.593700000000000      1.472600000000000     -1.534300000000000
H       7.368900000000000      2.992000000000000     -1.962100000000000
H       7.471200000000000      2.394800000000000     -0.297700000000000
