85

O       2.334800000000000     -0.526600000000000     -0.125300000000000
O       3.080800000000000      0.418400000000000     -2.091400000000000
C      -2.387800000000000     -0.798400000000000      0.508000000000000
C      -1.207900000000000     -1.524900000000000     -0.181500000000000
C      -3.503100000000000     -0.355600000000000     -0.542100000000000
C      -0.160700000000000     -2.098900000000000      0.861900000000000
C      -1.822100000000000      0.412300000000000      1.318700000000000
C      -3.369600000000000      2.155100000000000      0.290500000000000
C      -4.245900000000000      0.898800000000000     -0.006100000000000
C      -0.520500000000000     -0.497400000000000     -1.123000000000000
C      -1.888400000000000      1.757400000000000      0.586600000000000
C       1.124000000000000     -2.600100000000000      0.128400000000000
C      -2.935900000000000     -1.789000000000000      1.571000000000000
C       1.755700000000000     -1.605600000000000     -0.861300000000000
C      -1.832600000000000     -2.647200000000000     -1.049600000000000
C       0.713300000000000     -1.049600000000000     -1.836600000000000
C      -4.571700000000000     -1.461900000000000     -0.758200000000000
C      -2.946700000000000     -0.072700000000000     -1.961000000000000
C      -0.726100000000000     -3.307000000000000      1.652200000000000
C       0.228700000000000     -1.042600000000000      1.927600000000000
C      -4.030000000000000      2.894000000000000      1.480800000000000
C      -3.414400000000000      3.129300000000000     -0.908400000000000
C      -1.094900000000000      2.813700000000000      1.368900000000000
C       2.894100000000000     -2.283900000000000     -1.631200000000000
C       2.971500000000000      0.422200000000000     -0.870900000000000
C       3.545200000000000      1.519900000000000      0.011900000000000
C       4.967700000000000      1.168400000000000      0.484700000000000
C       3.534700000000000      2.875300000000000     -0.715300000000000
C       4.973900000000000      0.146600000000000      1.625800000000000
C       2.141800000000000      3.287400000000000     -1.174300000000000
C       6.391900000000000     -0.237500000000000      2.019400000000000
H      -0.954700000000000      0.508400000000000      1.917200000000000
H      -2.552400000000000      0.528800000000000      2.139800000000000
H      -4.760200000000000      0.600100000000000      0.918800000000000
H      -5.056600000000000      1.176300000000000     -0.694100000000000
H      -0.105900000000000      0.320300000000000     -0.533600000000000
H      -0.955100000000000     -0.060000000000000     -1.988700000000000
H      -1.379500000000000      1.715300000000000     -0.373400000000000
H       1.881200000000000     -2.871400000000000      0.877900000000000
H       0.890900000000000     -3.531300000000000     -0.403600000000000
H      -3.147300000000000     -2.811000000000000      1.263000000000000
H      -3.920900000000000     -1.415100000000000      1.890000000000000
H      -2.418500000000000     -1.739900000000000      2.528100000000000
H      -2.580300000000000     -3.265200000000000     -0.554200000000000
H      -1.043700000000000     -3.376000000000000     -1.278800000000000
H      -2.181900000000000     -2.432500000000000     -2.049300000000000
H       0.393000000000000     -1.862500000000000     -2.503300000000000
H       1.085500000000000     -0.277900000000000     -2.513400000000000
H      -4.237400000000000     -2.346000000000000     -1.296800000000000
H      -5.389300000000000     -1.062300000000000     -1.375200000000000
H      -5.058300000000000     -1.782800000000000      0.166200000000000
H      -2.575600000000000     -0.845000000000000     -2.622300000000000
H      -2.413200000000000      0.870800000000000     -2.048500000000000
H      -3.842300000000000      0.204600000000000     -2.549500000000000
H      -1.368900000000000     -3.974100000000000      1.075500000000000
H       0.119000000000000     -3.955800000000000      1.931400000000000
H      -1.157200000000000     -3.101500000000000      2.632000000000000
H       1.112000000000000     -1.453000000000000      2.448400000000000
H       0.655700000000000     -0.120200000000000      1.525100000000000
H      -0.447000000000000     -0.965800000000000      2.785900000000000
H      -5.089000000000000      3.092700000000000      1.276100000000000
H      -3.979600000000000      2.304800000000000      2.402400000000000
H      -3.557800000000000      3.862900000000000      1.675300000000000
H      -2.943800000000000      2.747000000000000     -1.813500000000000
H      -4.449100000000000      3.385900000000000     -1.165000000000000
H      -2.906100000000000      4.070000000000000     -0.667100000000000
H      -0.036200000000000      2.536500000000000      1.423800000000000
H      -1.147600000000000      3.792600000000000      0.882600000000000
H      -1.457100000000000      2.919500000000000      2.396700000000000
H       3.788500000000000     -2.389700000000000     -1.006100000000000
H       3.192200000000000     -1.768500000000000     -2.547800000000000
H       2.594400000000000     -3.287900000000000     -1.955200000000000
H       2.885400000000000      1.624300000000000      0.884200000000000
H       5.476600000000000      2.075200000000000      0.835200000000000
H       5.552100000000000      0.780000000000000     -0.359100000000000
H       3.924100000000000      3.651500000000000     -0.045400000000000
H       4.199900000000000      2.843400000000000     -1.587000000000000
H       4.442200000000000     -0.763200000000000      1.329500000000000
H       4.453100000000000      0.559200000000000      2.497500000000000
H       1.730000000000000      2.606900000000000     -1.924500000000000
H       2.179100000000000      4.285400000000000     -1.623100000000000
H       1.449300000000000      3.327800000000000     -0.329000000000000
H       6.924800000000000     -0.688600000000000      1.176200000000000
H       6.374300000000000     -0.964100000000000      2.837800000000000
H       6.956600000000000      0.638200000000000      2.354800000000000
