85

N       6.887700000000000      0.580100000000000      0.080700000000000
N       9.856400000000001      1.344700000000000     -2.036400000000000
C      -1.745800000000000     -1.160400000000000      0.165400000000000
C      -1.126200000000000      0.069100000000000      0.864900000000000
C       0.347800000000000     -0.133200000000000      1.233300000000000
C       1.153700000000000     -0.412900000000000     -0.077200000000000
C       2.693500000000000     -0.580500000000000      0.204400000000000
C      -3.195900000000000     -0.643900000000000     -0.001500000000000
C       3.175900000000000      0.711500000000000      0.939400000000000
C      -0.986700000000000     -1.385000000000000     -1.149900000000000
C       0.524800000000000     -1.559400000000000     -0.912500000000000
C      -2.128500000000000      0.398400000000000      1.967100000000000
C       0.911000000000000      1.080800000000000      1.985800000000000
C      -3.495000000000000      0.049200000000000      1.348600000000000
C       2.411300000000000      0.962300000000000      2.244000000000000
C       3.485700000000000     -0.687800000000000     -1.129500000000000
C      -1.710400000000000     -2.456300000000000      1.014100000000000
C       4.695700000000000      0.741500000000000      1.166000000000000
C      -4.247800000000000     -1.675500000000000     -0.383100000000000
C       2.963800000000000     -1.859800000000000      1.037500000000000
C       5.006800000000000     -0.629900000000000     -0.947800000000000
C       5.446000000000000      0.610200000000000     -0.164400000000000
C      -5.685200000000000     -1.214400000000000     -0.058200000000000
C      -4.141000000000000     -2.000500000000000     -1.878100000000000
C      -6.066200000000000      0.106200000000000     -0.734900000000000
C       7.619700000000000      1.006600000000000     -1.101600000000000
C      -7.470400000000000      0.601300000000000     -0.363600000000000
C       9.121900000000000      0.934000000000000     -0.844800000000000
C      -7.942700000000000      1.889800000000000     -1.063500000000000
C      -9.371400000000000      2.274400000000000     -0.678600000000000
C      -6.988500000000000      3.039300000000000     -0.725500000000000
H      -1.158600000000000      0.920100000000000      0.163600000000000
H       0.429200000000000     -0.991500000000000      1.907300000000000
H       1.050700000000000      0.489000000000000     -0.701800000000000
H      -3.185700000000000      0.150700000000000     -0.763000000000000
H       2.950400000000000      1.565500000000000      0.281200000000000
H      -1.141900000000000     -0.537100000000000     -1.829100000000000
H      -1.341100000000000     -2.277300000000000     -1.671300000000000
H       1.009600000000000     -1.615200000000000     -1.893500000000000
H       0.699200000000000     -2.524600000000000     -0.426900000000000
H      -1.948800000000000     -0.203300000000000      2.865200000000000
H      -2.082200000000000      1.452400000000000      2.259600000000000
H       0.718900000000000      1.995300000000000      1.409800000000000
H       0.396100000000000      1.200900000000000      2.946200000000000
H      -4.087600000000000      0.959800000000000      1.224600000000000
H      -4.024500000000000     -0.603300000000000      2.051100000000000
H       2.761200000000000      1.893000000000000      2.707200000000000
H       2.605400000000000      0.164300000000000      2.969600000000000
H       3.241600000000000     -1.622300000000000     -1.648300000000000
H       3.184800000000000      0.128500000000000     -1.799500000000000
H      -2.067500000000000     -3.314800000000000      0.434100000000000
H      -0.701300000000000     -2.715500000000000      1.345000000000000
H      -2.328800000000000     -2.386800000000000      1.914400000000000
H       4.997400000000000     -0.049100000000000      1.863700000000000
H       4.969300000000000      1.691600000000000      1.644400000000000
H      -4.114900000000000     -2.607800000000000      0.174900000000000
H       2.386000000000000     -1.890600000000000      1.964300000000000
H       4.014400000000000     -1.956500000000000      1.324700000000000
H       2.715800000000000     -2.762500000000000      0.469300000000000
H       5.461000000000000     -0.642100000000000     -1.945100000000000
H       5.354100000000000     -1.540600000000000     -0.444800000000000
H       5.191300000000000      1.503400000000000     -0.752900000000000
H      -6.390500000000000     -1.991600000000000     -0.381800000000000
H      -5.832000000000000     -1.130800000000000      1.024000000000000
H      -3.314600000000000     -2.685600000000000     -2.075300000000000
H      -4.003600000000000     -1.106400000000000     -2.494700000000000
H      -5.042600000000000     -2.513300000000000     -2.232500000000000
H       7.121100000000000      1.203600000000000      0.853500000000000
H      -5.345000000000000      0.886500000000000     -0.492300000000000
H      -6.030900000000000     -0.019400000000000     -1.823600000000000
H       7.347200000000000      2.036200000000000     -1.367300000000000
H       7.384300000000000      0.368200000000000     -1.960300000000000
H      -8.188100000000000     -0.196800000000000     -0.594500000000000
H      -7.515400000000000      0.745200000000000      0.724000000000000
H       9.415699999999999     -0.087200000000000     -0.575400000000000
H       9.399600000000000      1.591000000000000     -0.013000000000000
H      -7.917200000000000      1.728500000000000     -2.148500000000000
H      -9.453900000000001      2.467900000000000      0.396300000000000
H      -9.691700000000001      3.175300000000000     -1.212400000000000
H     -10.068800000000000      1.469100000000000     -0.931800000000000
H      -7.361100000000000      3.983500000000000     -1.138100000000000
H      -6.881400000000000      3.166100000000000      0.357100000000000
H      -5.995200000000000      2.878400000000000     -1.154900000000000
H       9.633900000000001      0.719500000000000     -2.810000000000000
H      10.856600000000000      1.245100000000000     -1.867600000000000
