85

O      -5.381900000000000     -1.713500000000000      1.312200000000000
O      -4.879600000000000      2.556100000000000     -0.369800000000000
C      -0.445400000000000     -2.945400000000000     -1.204000000000000
C      -3.837800000000000     -1.092700000000000     -0.436400000000000
C      -1.909500000000000     -2.693200000000000     -0.781700000000000
C      -2.357900000000000     -1.229500000000000     -0.817600000000000
C       0.541000000000000     -2.371000000000000     -0.167200000000000
C       4.445500000000000     -2.305500000000000      0.261800000000000
C       2.008300000000000     -2.672300000000000     -0.497300000000000
C       2.948800000000000     -2.019700000000000      0.522600000000000
C      -4.035800000000000     -1.286800000000000      1.083200000000000
C       5.348900000000000     -1.565000000000000      1.271500000000000
C       5.240800000000000     -0.033200000000000      1.288100000000000
C      -4.371300000000000      0.256400000000000     -0.905000000000000
C       5.447300000000000      2.154700000000000     -0.060400000000000
C       5.530500000000000      0.612600000000000     -0.071900000000000
C      -0.169500000000000     -2.423900000000000     -2.617000000000000
C      -3.772800000000000     -0.034900000000000      1.897200000000000
C       4.022600000000000      2.646900000000000      0.281300000000000
C       4.674300000000000     -3.820800000000000      0.296400000000000
C      -4.406000000000000      1.300800000000000     -0.047100000000000
C      -3.918100000000000      1.186800000000000      1.333700000000000
C       2.937700000000000      2.111100000000000     -0.660500000000000
C      -4.837600000000000      0.282800000000000     -2.337000000000000
C       6.435800000000000      2.774000000000000      0.935000000000000
C       1.557000000000000      2.658000000000000     -0.279800000000000
C      -3.364400000000000     -0.294100000000000      3.322900000000000
C       0.427800000000000      2.173400000000000     -1.208300000000000
C      -3.612700000000000      2.485000000000000      2.037500000000000
C      -0.916100000000000      2.718000000000000     -0.717700000000000
C       0.649800000000000      2.585000000000000     -2.664500000000000
H      -0.308100000000000     -4.035100000000000     -1.225500000000000
H      -4.415400000000000     -1.870000000000000     -0.956300000000000
H      -2.048000000000000     -3.117900000000000      0.218000000000000
H      -2.559000000000000     -3.274900000000000     -1.449500000000000
H      -2.199300000000000     -0.837800000000000     -1.828400000000000
H      -1.735100000000000     -0.623100000000000     -0.150200000000000
H       0.304500000000000     -2.779900000000000      0.823200000000000
H       0.416200000000000     -1.284100000000000     -0.098600000000000
H       4.699600000000000     -1.968700000000000     -0.749900000000000
H       2.133400000000000     -3.759200000000000     -0.510900000000000
H       2.269000000000000     -2.294700000000000     -1.491200000000000
H       2.684200000000000     -2.363200000000000      1.531100000000000
H       2.767500000000000     -0.941300000000000      0.506000000000000
H      -3.394500000000000     -2.090700000000000      1.456100000000000
H       5.135700000000000     -1.935400000000000      2.282700000000000
H       6.393700000000000     -1.831200000000000      1.064300000000000
H       5.956900000000000      0.331800000000000      2.033000000000000
H       4.248600000000000      0.250400000000000      1.650800000000000
H       5.708000000000000      2.510300000000000     -1.065500000000000
H       4.867100000000000      0.216900000000000     -0.845600000000000
H       6.544700000000000      0.326300000000000     -0.380500000000000
H      -0.067100000000000     -1.333900000000000     -2.635000000000000
H      -0.977800000000000     -2.704100000000000     -3.301000000000000
H       0.751500000000000     -2.854100000000000     -3.022800000000000
H       3.766100000000000      2.394500000000000      1.317100000000000
H       4.015900000000000      3.744000000000000      0.230100000000000
H       4.283000000000000     -4.265100000000000      1.217700000000000
H       5.746000000000000     -4.044500000000000      0.248600000000000
H       4.213500000000000     -4.323700000000000     -0.558700000000000
H       2.891500000000000      1.020200000000000     -0.631200000000000
H       3.197800000000000      2.402400000000000     -1.683400000000000
H       6.467900000000000      3.862000000000000      0.809900000000000
H       7.448000000000000      2.391500000000000      0.767100000000000
H       6.158900000000000      2.573800000000000      1.974700000000000
H      -5.665500000000000     -0.421400000000000     -2.471700000000000
H      -5.187700000000000      1.260100000000000     -2.674100000000000
H      -4.026100000000000     -0.011800000000000     -3.009800000000000
H       1.328000000000000      2.356100000000000      0.750300000000000
H       1.588600000000000      3.755200000000000     -0.286500000000000
H      -4.037000000000000     -1.028800000000000      3.779300000000000
H      -3.404500000000000      0.595100000000000      3.955800000000000
H      -2.345900000000000     -0.694200000000000      3.354900000000000
H      -5.494700000000000     -2.575000000000000      0.875400000000000
H       0.383400000000000      1.077900000000000     -1.165900000000000
H      -4.537600000000000      2.949000000000000      2.396100000000000
H      -3.110800000000000      3.193100000000000      1.369300000000000
H      -2.940400000000000      2.357500000000000      2.890000000000000
H      -5.197500000000000      2.565000000000000     -1.284700000000000
H      -0.935500000000000      3.812800000000000     -0.736500000000000
H      -1.735700000000000      2.352200000000000     -1.344300000000000
H      -1.104100000000000      2.390400000000000      0.309000000000000
H       0.802500000000000      3.665800000000000     -2.753400000000000
H      -0.215700000000000      2.314900000000000     -3.279500000000000
H       1.517700000000000      2.077900000000000     -3.096300000000000
