85

O      -0.384500000000000     -0.117700000000000     -0.471000000000000
N       0.532000000000000     -0.130500000000000      0.661100000000000
C       1.864300000000000      0.002900000000000      0.069300000000000
C       2.467600000000000     -1.391400000000000     -0.232000000000000
C       1.788400000000000      0.848200000000000     -1.204700000000000
C       3.535500000000000     -1.340400000000000     -1.344700000000000
C       3.194000000000000      1.144900000000000     -1.761700000000000
C       0.182700000000000      1.075100000000000      1.424100000000000
C      -1.612200000000000     -0.699900000000000     -0.039200000000000
C       4.204200000000000      0.025900000000000     -1.450800000000000
C      -2.436900000000000     -1.118000000000000     -1.267600000000000
C       3.038300000000000     -2.029100000000000      1.040400000000000
C      -1.300500000000000     -1.895600000000000      0.863700000000000
C      -0.228800000000000      2.237000000000000      0.472800000000000
C      -3.704600000000000     -1.870900000000000     -0.843100000000000
C      -2.570900000000000     -2.640100000000000      1.285900000000000
C      -3.383700000000000     -3.062600000000000      0.056200000000000
C      -2.802200000000000      0.091100000000000     -2.132900000000000
C      -0.900600000000000      3.555400000000000      0.972600000000000
C       3.117100000000000      1.429600000000000     -3.262700000000000
C      -0.874000000000000      0.718800000000000      2.473200000000000
C       1.470000000000000      1.505500000000000      2.161500000000000
C       3.012200000000000     -3.550000000000000      0.930300000000000
C       4.456200000000000     -1.528800000000000      1.295400000000000
C      -2.224900000000000     -3.853400000000000      2.146900000000000
C      -3.047200000000000     -0.340900000000000     -3.575400000000000
C      -4.027300000000000      0.801100000000000     -1.565800000000000
C      -1.084700000000000      4.467000000000000     -0.266300000000000
C      -2.281900000000000      3.347600000000000      1.605100000000000
C       0.002200000000000      4.319300000000000      1.959400000000000
H       2.627900000000000      0.450800000000000      0.697000000000000
H       1.660600000000000     -2.037100000000000     -0.608000000000000
H       1.266900000000000      1.786700000000000     -1.257200000000000
H       1.284400000000000      0.244000000000000     -1.977100000000000
H       3.026400000000000     -1.531100000000000     -2.300400000000000
H       4.274700000000000     -2.144100000000000     -1.278400000000000
H       3.565200000000000      2.059300000000000     -1.279100000000000
H      -2.220600000000000      0.044300000000000      0.464000000000000
H       4.742500000000000      0.283200000000000     -0.536100000000000
H       4.974100000000000     -0.012500000000000     -2.231500000000000
H      -1.805600000000000     -1.791500000000000     -1.865100000000000
H       2.414800000000000     -1.765000000000000      1.903800000000000
H      -0.735900000000000     -1.689400000000000      1.770000000000000
H      -0.659500000000000     -2.592700000000000      0.302300000000000
H      -0.861000000000000      1.923100000000000     -0.360000000000000
H       0.690600000000000      2.664500000000000      0.079400000000000
H      -4.255500000000000     -2.231200000000000     -1.718900000000000
H      -4.385900000000000     -1.237300000000000     -0.265300000000000
H      -3.184200000000000     -1.961300000000000      1.893500000000000
H      -4.319200000000000     -3.539400000000000      0.372900000000000
H      -2.827100000000000     -3.811300000000000     -0.522000000000000
H      -1.969400000000000      0.803400000000000     -2.156000000000000
H       2.412400000000000      2.242100000000000     -3.469400000000000
H       4.095600000000000      1.732400000000000     -3.650300000000000
H       2.791700000000000      0.546400000000000     -3.822700000000000
H      -1.908200000000000      0.633700000000000      2.156900000000000
H      -0.596600000000000     -0.174800000000000      3.043100000000000
H      -0.888300000000000      1.493900000000000      3.249900000000000
H       2.172000000000000      2.107600000000000      1.572200000000000
H       1.225100000000000      2.140300000000000      3.020000000000000
H       1.988800000000000      0.659300000000000      2.633300000000000
H       3.621000000000000     -3.913900000000000      0.096500000000000
H       3.397800000000000     -4.008900000000000      1.847300000000000
H       1.989000000000000     -3.913900000000000      0.786800000000000
H       4.498100000000000     -0.445200000000000      1.429800000000000
H       4.807600000000000     -1.948700000000000      2.247300000000000
H       5.196300000000000     -1.844200000000000      0.556200000000000
H      -1.602300000000000     -4.567800000000000      1.597600000000000
H      -3.133800000000000     -4.373200000000000      2.467800000000000
H      -1.678800000000000     -3.549900000000000      3.046300000000000
H      -3.887300000000000     -1.037000000000000     -3.661900000000000
H      -2.159500000000000     -0.825700000000000     -3.995600000000000
H      -3.274100000000000      0.528900000000000     -4.201700000000000
H      -4.959100000000000      0.253500000000000     -1.743500000000000
H      -4.148500000000000      1.766500000000000     -2.072600000000000
H      -3.936900000000000      1.023400000000000     -0.499300000000000
H      -1.742400000000000      3.998400000000000     -1.007600000000000
H      -1.532100000000000      5.429700000000000      0.007000000000000
H      -0.126100000000000      4.678100000000000     -0.754200000000000
H      -2.889700000000000      2.658800000000000      1.010100000000000
H      -2.232900000000000      2.974100000000000      2.629100000000000
H      -2.831000000000000      4.295500000000000      1.662600000000000
H      -0.373500000000000      5.337200000000000      2.120900000000000
H       1.028800000000000      4.409400000000000      1.589200000000000
H       0.020400000000000      3.845200000000000      2.943700000000000
