85

O       6.065200000000000     -1.088200000000000      1.506700000000000
O      -8.347400000000000     -2.075200000000000      0.037400000000000
C      -0.874700000000000      1.434600000000000     -0.370700000000000
C      -0.088100000000000      0.112200000000000     -0.166700000000000
C      -2.328800000000000      0.910600000000000     -0.228900000000000
C       1.383700000000000      0.125700000000000     -0.559300000000000
C      -0.890500000000000     -0.935300000000000     -0.950300000000000
C      -2.331500000000000     -0.422800000000000     -0.988800000000000
C       2.059100000000000     -1.271600000000000     -0.503600000000000
C      -3.439300000000000      1.843600000000000     -0.694300000000000
C      -0.541700000000000      2.454600000000000      0.728000000000000
C       3.537000000000000     -1.183900000000000     -1.062600000000000
C      -0.604900000000000      2.085600000000000     -1.740800000000000
C       2.158600000000000      1.147200000000000      0.283500000000000
C       4.289100000000000      0.016000000000000     -0.464500000000000
C      -4.740500000000000      1.089900000000000     -1.040000000000000
C       3.645900000000000      1.036100000000000      0.135300000000000
C       1.980600000000000     -1.888100000000000      0.907900000000000
C      -3.670500000000000      2.959100000000000      0.327600000000000
C      -0.894400000000000      1.914800000000000      2.097000000000000
C       4.284300000000000     -2.510700000000000     -0.792200000000000
C       3.489800000000000     -1.002200000000000     -2.601100000000000
C       5.791500000000000      0.055100000000000     -0.582400000000000
C      -5.328000000000000      0.242200000000000      0.095600000000000
C      -6.580100000000000     -0.506700000000000     -0.374800000000000
C       6.470300000000000      0.075300000000000      0.786800000000000
C      -7.219600000000000     -1.449700000000000      0.665000000000000
C       7.995200000000000      0.069700000000000      0.619200000000000
C      -6.274300000000000     -2.576200000000000      1.084000000000000
C      -7.732200000000000     -0.702000000000000      1.897600000000000
C       8.736499999999999      0.040500000000000      1.949300000000000
H      -0.166500000000000     -0.200800000000000      0.876600000000000
H      -2.540700000000000      0.607700000000000      0.800900000000000
H       1.438300000000000      0.446900000000000     -1.605300000000000
H      -0.841200000000000     -1.920500000000000     -0.473900000000000
H      -0.520300000000000     -1.047900000000000     -1.976400000000000
H      -2.608700000000000     -0.296700000000000     -2.041600000000000
H      -2.995300000000000     -1.176000000000000     -0.558600000000000
H       1.511500000000000     -1.956900000000000     -1.163700000000000
H      -3.161400000000000      2.328900000000000     -1.635900000000000
H       0.479400000000000      2.814500000000000      0.743600000000000
H      -1.087200000000000      3.384500000000000      0.568100000000000
H       0.443300000000000      2.378500000000000     -1.855200000000000
H      -0.855400000000000      1.420400000000000     -2.573100000000000
H      -1.177000000000000      3.010800000000000     -1.867400000000000
H       1.907600000000000      1.092800000000000      1.346900000000000
H       1.960600000000000      2.146900000000000     -0.105000000000000
H      -5.495600000000000      1.828400000000000     -1.343300000000000
H      -4.596000000000000      0.464600000000000     -1.928300000000000
H       4.217000000000000      1.869200000000000      0.538300000000000
H       2.573200000000000     -1.326700000000000      1.636400000000000
H       2.342400000000000     -2.921200000000000      0.907600000000000
H       0.954000000000000     -1.943300000000000      1.277900000000000
H      -3.709000000000000      2.592300000000000      1.355700000000000
H      -4.638500000000000      3.439700000000000      0.137500000000000
H      -2.943600000000000      3.765100000000000      0.241100000000000
H      -1.953200000000000      1.739500000000000      2.278900000000000
H      -0.618900000000000      2.682500000000000      2.833000000000000
H      -0.326000000000000      1.032800000000000      2.395900000000000
H       3.671900000000000     -3.361600000000000     -1.116700000000000
H       4.505000000000000     -2.657000000000000      0.268200000000000
H       5.225300000000000     -2.596200000000000     -1.344500000000000
H       2.884100000000000     -1.784900000000000     -3.072000000000000
H       4.492900000000000     -1.060400000000000     -3.040700000000000
H       3.075500000000000     -0.033200000000000     -2.897400000000000
H       6.072400000000000      0.957800000000000     -1.142100000000000
H       6.173000000000000     -0.776100000000000     -1.180200000000000
H      -5.596100000000000      0.906600000000000      0.924800000000000
H      -4.602800000000000     -0.466300000000000      0.492100000000000
H      -7.334500000000000      0.218800000000000     -0.708600000000000
H      -6.335200000000000     -1.093200000000000     -1.271100000000000
H       6.173200000000000      0.950500000000000      1.374100000000000
H       8.307499999999999      0.956000000000000      0.054600000000000
H       8.305400000000001     -0.811400000000000      0.043700000000000
H       6.460600000000000     -1.862000000000000      1.070300000000000
H      -6.795800000000000     -3.315200000000000      1.703800000000000
H      -5.416700000000000     -2.207700000000000      1.654500000000000
H      -5.902500000000000     -3.118400000000000      0.207100000000000
H      -6.918300000000000     -0.250800000000000      2.473000000000000
H      -8.285200000000000     -1.375200000000000      2.562900000000000
H      -8.433500000000000      0.088300000000000      1.606600000000000
H       8.463500000000000      0.901900000000000      2.567100000000000
H       9.817299999999999      0.073400000000000      1.779400000000000
H       8.512499999999999     -0.871600000000000      2.511100000000000
H      -8.770300000000001     -2.662400000000000      0.687100000000000
