85

O      -5.589700000000000     -5.080500000000000     -0.841100000000000
N      -1.117500000000000     -0.836000000000000     -0.384700000000000
C       1.292600000000000     -1.131200000000000      0.367800000000000
C       1.618600000000000      0.365500000000000      0.140500000000000
C      -0.621900000000000      0.291300000000000     -1.219100000000000
C       0.391300000000000      1.163200000000000     -0.391000000000000
C      -0.201700000000000     -1.403200000000000      0.619800000000000
C       2.142300000000000     -1.750500000000000      1.499800000000000
C      -0.653500000000000     -0.964100000000000      2.026200000000000
C       2.887800000000000      0.499100000000000     -0.720200000000000
C      -1.861900000000000      1.166500000000000     -1.551500000000000
C       0.801900000000000      2.494500000000000     -1.044500000000000
C       1.689500000000000     -1.332200000000000      2.897600000000000
C       0.206100000000000     -1.602900000000000      3.114500000000000
C      -0.020100000000000     -0.172700000000000     -2.565500000000000
C      -1.835000000000000     -1.894500000000000     -1.096900000000000
C      -2.506400000000000      1.677900000000000     -0.276200000000000
C       4.140900000000000      0.267600000000000      0.114800000000000
C      -2.989000000000000     -2.419600000000000     -0.244600000000000
C       1.519800000000000      3.378600000000000     -0.052900000000000
C      -3.712000000000000      2.560100000000000     -0.608500000000000
C       5.398800000000000      0.371700000000000     -0.750600000000000
C      -3.746600000000000     -3.532900000000000     -0.966400000000000
C      -4.356300000000000      3.119300000000000      0.661900000000000
C       6.660900000000000      0.102700000000000      0.072100000000000
C      -4.925500000000000     -4.035300000000000     -0.143500000000000
C      -5.554600000000000      4.029400000000000      0.384200000000000
C       7.948200000000000      0.171100000000000     -0.752300000000000
C      -6.214200000000000      4.567100000000000      1.644500000000000
C       9.207200000000000     -0.070200000000000      0.065900000000000
H       1.560500000000000     -1.685500000000000     -0.541600000000000
H       1.848100000000000      0.819000000000000      1.114200000000000
H      -0.118200000000000      1.448100000000000      0.535100000000000
H      -0.298000000000000     -2.499500000000000      0.619700000000000
H       1.983100000000000     -2.838400000000000      1.435300000000000
H       3.212800000000000     -1.674200000000000      1.459500000000000
H      -0.608000000000000      0.124100000000000      2.138300000000000
H      -1.699100000000000     -1.245500000000000      2.198400000000000
H       3.014000000000000      1.479900000000000     -1.176300000000000
H       2.861000000000000     -0.206100000000000     -1.559400000000000
H      -1.599600000000000      1.995900000000000     -2.217600000000000
H      -2.606700000000000      0.592700000000000     -2.117600000000000
H       1.384200000000000      2.361400000000000     -1.960100000000000
H      -0.082700000000000      3.060500000000000     -1.350100000000000
H       2.266400000000000     -1.886800000000000      3.647200000000000
H       1.902700000000000     -0.270600000000000      3.063800000000000
H      -0.098500000000000     -1.221500000000000      4.095700000000000
H       0.030300000000000     -2.685800000000000      3.127400000000000
H      -0.772000000000000     -0.602700000000000     -3.235800000000000
H       0.423100000000000      0.666200000000000     -3.112000000000000
H       0.761000000000000     -0.925300000000000     -2.436200000000000
H      -2.293400000000000     -1.523200000000000     -2.019200000000000
H      -1.160200000000000     -2.703300000000000     -1.405800000000000
H      -1.833200000000000      2.308300000000000      0.308400000000000
H      -2.841600000000000      0.859400000000000      0.369400000000000
H       4.213900000000000     -0.745100000000000      0.466700000000000
H       4.193500000000000      0.957700000000000      0.963200000000000
H      -3.679500000000000     -1.600000000000000     -0.008900000000000
H      -2.621500000000000     -2.817000000000000      0.708100000000000
H       0.891600000000000      3.578800000000000      0.822100000000000
H       1.742500000000000      4.345900000000000     -0.516900000000000
H       2.468500000000000      2.974300000000000      0.305100000000000
H      -4.454200000000000      1.978600000000000     -1.168800000000000
H      -3.397800000000000      3.391300000000000     -1.251700000000000
H       5.343400000000000     -0.344900000000000     -1.579400000000000
H       5.460600000000000      1.373200000000000     -1.193300000000000
H      -4.111700000000000     -3.178700000000000     -1.938500000000000
H      -3.072800000000000     -4.370400000000000     -1.186000000000000
H      -3.607300000000000      3.682500000000000      1.232700000000000
H      -4.678900000000000      2.286600000000000      1.299300000000000
H       6.590100000000000     -0.888800000000000      0.536500000000000
H       6.720000000000000      0.831300000000000      0.890300000000000
H      -4.585700000000000     -4.426900000000000      0.820900000000000
H      -5.643800000000000     -3.228900000000000      0.036600000000000
H      -6.302500000000000      3.476900000000000     -0.197000000000000
H      -5.232200000000000      4.874800000000000     -0.235500000000000
H       7.902300000000000     -0.570200000000000     -1.559000000000000
H       8.021200000000000      1.155600000000000     -1.229600000000000
H      -5.505500000000000      5.157200000000000      2.234200000000000
H      -6.584300000000000      3.749100000000000      2.270500000000000
H      -7.061700000000000      5.209700000000000      1.386300000000000
H       9.186900000000000     -1.061500000000000      0.529400000000000
H      10.093800000000000     -0.009900000000000     -0.572900000000000
H       9.306300000000000      0.677800000000000      0.858900000000000
H      -6.331300000000000     -5.369700000000000     -0.282700000000000
