85

O       2.387400000000000     -2.367700000000000     -0.681000000000000
O       4.279800000000000     -2.274000000000000     -2.006100000000000
C       3.456300000000000      0.056800000000000      0.610800000000000
C       4.611100000000000      0.308700000000000     -0.319700000000000
C       4.241400000000000     -1.106800000000000      0.047500000000000
C       3.562300000000000      0.471400000000000      2.048900000000000
C       4.321600000000000      0.876100000000000     -1.674900000000000
C       3.652400000000000     -1.972300000000000     -1.000500000000000
C       3.195900000000000     -0.624400000000000      3.052400000000000
C       4.403100000000000      2.404200000000000     -1.723200000000000
C       1.862800000000000     -1.339400000000000      2.819600000000000
C       3.426900000000000      3.085800000000000     -0.759000000000000
C       0.652700000000000     -0.407700000000000      2.742000000000000
C       1.956300000000000      2.800300000000000     -1.080500000000000
C       1.721800000000000     -3.169100000000000     -1.666800000000000
C      -0.678900000000000     -1.158300000000000      2.612900000000000
C       0.976600000000000      3.540200000000000     -0.167000000000000
C       0.358600000000000     -3.633000000000000     -1.153700000000000
C      -0.768900000000000     -2.160900000000000      1.455300000000000
C      -0.705500000000000     -2.528800000000000     -1.074700000000000
C      -0.560400000000000     -1.527800000000000      0.076400000000000
C      -0.474200000000000      3.193700000000000     -0.514300000000000
C      -1.455000000000000      3.958200000000000      0.377600000000000
C      -2.923800000000000      3.658300000000000      0.064900000000000
C      -3.275600000000000      2.172300000000000      0.162000000000000
C      -4.759300000000000      1.934400000000000     -0.128700000000000
C      -5.121500000000000      0.452700000000000      0.000000000000000
C      -6.598200000000000      0.212800000000000     -0.327900000000000
C      -7.026300000000000     -1.260000000000000     -0.188900000000000
C      -6.202600000000000     -2.131400000000000     -1.140500000000000
C      -8.516999999999999     -1.464200000000000     -0.463000000000000
H       2.445400000000000      0.171600000000000      0.246100000000000
H       5.546600000000000      0.678800000000000      0.084800000000000
H       4.930000000000000     -1.619200000000000      0.712000000000000
H       2.915800000000000      1.342700000000000      2.208400000000000
H       4.581200000000000      0.811100000000000      2.272700000000000
H       3.348800000000000      0.543900000000000     -2.055200000000000
H       5.068600000000000      0.479400000000000     -2.373800000000000
H       3.194500000000000     -0.185000000000000      4.057700000000000
H       3.988400000000000     -1.383500000000000      3.053600000000000
H       5.421700000000000      2.721000000000000     -1.467700000000000
H       4.210800000000000      2.744400000000000     -2.747500000000000
H       1.711700000000000     -2.055500000000000      3.637200000000000
H       1.941500000000000     -1.933600000000000      1.905100000000000
H       3.650200000000000      2.816500000000000      0.277700000000000
H       3.591700000000000      4.168900000000000     -0.826800000000000
H       0.753400000000000      0.286800000000000      1.901700000000000
H       0.614300000000000      0.210500000000000      3.647400000000000
H       1.743500000000000      1.730500000000000     -1.027700000000000
H       1.761300000000000      3.098500000000000     -2.118800000000000
H       2.337800000000000     -4.051500000000000     -1.877100000000000
H       1.606800000000000     -2.589000000000000     -2.589600000000000
H      -1.485500000000000     -0.421400000000000      2.512500000000000
H      -0.870000000000000     -1.698100000000000      3.548900000000000
H       1.133300000000000      4.621300000000000     -0.262200000000000
H       1.178200000000000      3.272900000000000      0.877500000000000
H       0.473700000000000     -4.122100000000000     -0.181400000000000
H      -0.012800000000000     -4.395200000000000     -1.850200000000000
H      -0.051000000000000     -2.969600000000000      1.622300000000000
H      -1.762400000000000     -2.625900000000000      1.485100000000000
H      -0.715000000000000     -1.975200000000000     -2.021800000000000
H      -1.689900000000000     -3.007100000000000     -0.992000000000000
H      -1.313500000000000     -0.741300000000000     -0.060500000000000
H       0.410200000000000     -1.032000000000000      0.015100000000000
H      -0.603900000000000      2.113500000000000     -0.389600000000000
H      -0.672700000000000      3.430400000000000     -1.566300000000000
H      -1.286800000000000      5.036500000000000      0.268300000000000
H      -1.256800000000000      3.712300000000000      1.428300000000000
H      -3.552200000000000      4.230500000000000      0.758200000000000
H      -3.155200000000000      4.020900000000000     -0.944300000000000
H      -2.690200000000000      1.591700000000000     -0.558600000000000
H      -3.027700000000000      1.799800000000000      1.163200000000000
H      -4.994900000000000      2.285500000000000     -1.140800000000000
H      -5.369900000000000      2.521400000000000      0.568000000000000
H      -4.907300000000000      0.105200000000000      1.017700000000000
H      -4.480100000000000     -0.115300000000000     -0.681900000000000
H      -7.215700000000000      0.823600000000000      0.343000000000000
H      -6.806800000000000      0.561700000000000     -1.347600000000000
H      -6.827000000000000     -1.588900000000000      0.838800000000000
H      -6.253500000000000     -1.760700000000000     -2.169900000000000
H      -5.151700000000000     -2.179600000000000     -0.840200000000000
H      -6.574800000000000     -3.162200000000000     -1.138300000000000
H      -8.775000000000000     -1.172800000000000     -1.486800000000000
H      -9.120799999999999     -0.860800000000000      0.222800000000000
H      -8.800599999999999     -2.512900000000000     -0.325200000000000
