86

O       0.291900000000000     -4.018600000000000      3.082700000000000
N       0.417800000000000     -1.800000000000000      2.317800000000000
C       1.780100000000000     -1.009200000000000      0.482300000000000
C       3.558700000000000      1.727100000000000     -0.163400000000000
C       2.048600000000000      0.190900000000000      1.412900000000000
C       3.336300000000000      1.010500000000000      1.191300000000000
C       0.445300000000000     -1.663000000000000      0.860100000000000
C       2.921900000000000     -2.043900000000000      0.517100000000000
C       4.121500000000000      0.846200000000000     -1.300300000000000
C       2.295700000000000      2.454700000000000     -0.634200000000000
C       2.870700000000000     -3.026200000000000     -0.660500000000000
C       5.550900000000000      0.342500000000000     -1.052600000000000
C      -0.731700000000000     -0.801000000000000      0.401700000000000
C       4.196300000000000     -3.758400000000000     -0.924100000000000
C       6.076500000000000     -0.590400000000000     -2.157000000000000
C       1.965400000000000      3.687000000000000      0.202900000000000
C       5.425800000000000     -2.865200000000000     -1.151800000000000
C       5.297300000000000     -1.901000000000000     -2.338300000000000
C      -2.034900000000000     -1.604900000000000      0.327700000000000
C       0.717000000000000      4.432300000000000     -0.274600000000000
C      -3.243100000000000     -0.766600000000000     -0.102800000000000
C       0.420600000000000      5.642400000000000      0.614200000000000
C      -4.579500000000000     -1.513300000000000     -0.175300000000000
C      -5.756400000000000     -0.612100000000000     -0.556500000000000
C      -0.847400000000000      6.366600000000000      0.162500000000000
C      -7.103500000000000     -1.341700000000000     -0.553200000000000
C       0.354900000000000     -2.908700000000000      2.698000000000000
C      -8.277799999999999     -0.447800000000000     -0.958100000000000
C      -1.163800000000000      7.550000000000000      1.063100000000000
C      -9.594200000000001     -1.226000000000000     -0.949500000000000
C     -10.760899999999999     -0.352200000000000     -1.382200000000000
H       1.694200000000000     -0.635000000000000     -0.542700000000000
H       4.327100000000000      2.492800000000000      0.017800000000000
H       2.117500000000000     -0.156300000000000      2.452100000000000
H       1.198500000000000      0.881500000000000      1.391900000000000
H       3.336200000000000      1.789000000000000      1.967700000000000
H       4.207700000000000      0.398100000000000      1.441700000000000
H       0.361300000000000     -2.630700000000000      0.345300000000000
H       2.931500000000000     -2.600300000000000      1.461200000000000
H       3.867600000000000     -1.508700000000000      0.486000000000000
H       4.142100000000000      1.431400000000000     -2.229300000000000
H       3.446800000000000      0.013300000000000     -1.492100000000000
H       1.435100000000000      1.779300000000000     -0.679100000000000
H       2.446500000000000      2.800900000000000     -1.665500000000000
H       2.101700000000000     -3.783400000000000     -0.467000000000000
H       2.556500000000000     -2.507800000000000     -1.572400000000000
H       5.631000000000000     -0.157700000000000     -0.085400000000000
H       6.219300000000000      1.211100000000000     -0.996500000000000
H      -0.535300000000000     -0.391600000000000     -0.597100000000000
H      -0.879000000000000      0.051400000000000      1.075800000000000
H       4.064700000000000     -4.409200000000000     -1.797400000000000
H       4.405900000000000     -4.419800000000000     -0.074200000000000
H       7.127100000000000     -0.826100000000000     -1.947300000000000
H       6.065000000000000     -0.045800000000000     -3.109400000000000
H       1.814900000000000      3.393400000000000      1.248100000000000
H       2.820000000000000      4.374900000000000      0.188100000000000
H       6.291000000000000     -3.516300000000000     -1.334000000000000
H       5.666100000000000     -2.337400000000000     -0.225200000000000
H       5.685600000000000     -2.410300000000000     -3.230000000000000
H       4.255900000000000     -1.672300000000000     -2.571700000000000
H      -1.911900000000000     -2.436700000000000     -0.376800000000000
H      -2.249200000000000     -2.048100000000000      1.307600000000000
H       0.858300000000000      4.760400000000000     -1.311300000000000
H      -0.140600000000000      3.748700000000000     -0.264700000000000
H      -3.034000000000000     -0.325800000000000     -1.085800000000000
H      -3.349700000000000      0.073300000000000      0.595600000000000
H       1.270200000000000      6.335500000000000      0.588600000000000
H       0.303000000000000      5.313600000000000      1.654000000000000
H      -4.496600000000000     -2.330900000000000     -0.901500000000000
H      -4.780700000000000     -1.974400000000000      0.799400000000000
H      -5.807100000000000      0.231700000000000      0.142800000000000
H      -5.576200000000000     -0.188100000000000     -1.552000000000000
H      -0.727300000000000      6.719300000000000     -0.868400000000000
H      -1.696200000000000      5.672900000000000      0.171400000000000
H      -7.047300000000000     -2.196700000000000     -1.238400000000000
H      -7.287400000000000     -1.750000000000000      0.448300000000000
H      -8.346399999999999      0.402800000000000     -0.269300000000000
H      -8.097000000000000     -0.039400000000000     -1.959700000000000
H      -1.323400000000000      7.225400000000000      2.096300000000000
H      -0.347400000000000      8.279199999999999      1.053900000000000
H      -2.073300000000000      8.054000000000000      0.721200000000000
H      -9.789300000000001     -1.616500000000000      0.056000000000000
H      -9.522500000000001     -2.087300000000000     -1.624000000000000
H     -10.611700000000001      0.026700000000000     -2.398300000000000
H     -11.691599999999999     -0.928000000000000     -1.367700000000000
H     -10.880200000000000      0.503500000000000     -0.710000000000000
