86

O      -5.661400000000000     -2.536200000000000      0.269200000000000
N      -5.671600000000000     -1.503500000000000      1.292600000000000
C       4.569700000000000      2.125100000000000      0.799900000000000
C       3.890100000000000      2.279400000000000      2.163600000000000
C       6.036300000000000      1.715600000000000      0.951500000000000
C       2.363300000000000      2.326800000000000      2.067900000000000
C       6.795900000000000      1.634900000000000     -0.377100000000000
C       1.827200000000000      3.543600000000000      1.310700000000000
C       6.167700000000000      0.752400000000000     -1.460800000000000
C       0.302900000000000      3.474800000000000      1.191600000000000
C       5.914000000000000     -0.690100000000000     -1.015700000000000
C      -0.263400000000000      4.687400000000000      0.448100000000000
C       5.324300000000000     -1.520500000000000     -2.158400000000000
C      -1.779300000000000      4.596700000000000      0.243600000000000
C       5.013400000000000     -2.968200000000000     -1.766700000000000
C      -2.169100000000000      3.586400000000000     -0.838700000000000
C       4.003100000000000     -3.156300000000000     -0.627400000000000
C      -3.688200000000000      3.437700000000000     -0.951000000000000
C       2.636200000000000     -2.525500000000000     -0.909200000000000
C      -4.055100000000000      2.440500000000000     -2.052400000000000
C       1.627300000000000     -2.715900000000000      0.230300000000000
C      -5.558400000000000      2.175000000000000     -2.167000000000000
C       1.174400000000000     -4.167300000000000      0.406700000000000
C      -6.226800000000000      1.573400000000000     -0.925600000000000
C       0.181500000000000     -4.357900000000000      1.558400000000000
C      -5.558200000000000      0.287600000000000     -0.430200000000000
C      -1.157200000000000     -3.625400000000000      1.421000000000000
C      -6.364000000000000     -0.355000000000000      0.702700000000000
C      -1.948400000000000     -4.030600000000000      0.176700000000000
C      -3.306100000000000     -3.466700000000000      0.206800000000000
C      -4.420300000000000     -3.018300000000000      0.238700000000000
H       4.511200000000000      3.069000000000000      0.246100000000000
H       4.031600000000000      1.370400000000000      0.216100000000000
H       4.159200000000000      1.428600000000000      2.801900000000000
H       4.263100000000000      3.181200000000000      2.663500000000000
H       6.097200000000000      0.749700000000000      1.467000000000000
H       6.549800000000000      2.439700000000000      1.596600000000000
H       2.005600000000000      1.406000000000000      1.590200000000000
H       1.952300000000000      2.330700000000000      3.085200000000000
H       7.812000000000000      1.275700000000000     -0.171500000000000
H       6.905200000000000      2.648600000000000     -0.782500000000000
H       2.122200000000000      4.461900000000000      1.832000000000000
H       2.258400000000000      3.586100000000000      0.304500000000000
H       6.838000000000000      0.749100000000000     -2.329500000000000
H       5.228400000000000      1.203600000000000     -1.802600000000000
H       0.034400000000000      2.549800000000000      0.670400000000000
H      -0.144000000000000      3.420600000000000      2.191900000000000
H       5.223900000000000     -0.694200000000000     -0.167300000000000
H       6.852400000000000     -1.143800000000000     -0.675800000000000
H      -0.042900000000000      5.590500000000000      1.030600000000000
H       0.234800000000000      4.805200000000000     -0.521600000000000
H       6.039400000000000     -1.537700000000000     -2.990700000000000
H       4.420100000000000     -1.036800000000000     -2.545000000000000
H      -2.265700000000000      4.343000000000000      1.193100000000000
H      -2.152100000000000      5.585900000000000     -0.049600000000000
H       5.948900000000000     -3.467400000000000     -1.484600000000000
H       4.641300000000000     -3.492700000000000     -2.655800000000000
H      -1.755900000000000      3.908400000000000     -1.802300000000000
H      -1.737700000000000      2.604600000000000     -0.617000000000000
H       4.411800000000000     -2.754600000000000      0.306700000000000
H       3.886500000000000     -4.234600000000000     -0.471400000000000
H      -4.145500000000000      4.410200000000000     -1.168000000000000
H      -4.080700000000000      3.101000000000000      0.014600000000000
H       2.757500000000000     -1.446800000000000     -1.059600000000000
H       2.222900000000000     -2.932700000000000     -1.839700000000000
H      -3.701800000000000      2.831400000000000     -3.015200000000000
H      -3.522600000000000      1.495100000000000     -1.896400000000000
H       0.756300000000000     -2.088700000000000      0.008700000000000
H       2.057200000000000     -2.342600000000000      1.167600000000000
H      -6.070800000000000      3.111300000000000     -2.420300000000000
H      -5.721300000000000      1.496500000000000     -3.013900000000000
H       2.043700000000000     -4.799500000000000      0.619600000000000
H       0.743700000000000     -4.540400000000000     -0.529200000000000
H      -6.244900000000000      2.313600000000000     -0.117100000000000
H      -7.275200000000000      1.364600000000000     -1.173100000000000
H       0.657400000000000     -4.038500000000000      2.494100000000000
H      -0.016600000000000     -5.431800000000000      1.667000000000000
H      -5.458300000000000     -0.413900000000000     -1.267100000000000
H      -4.547800000000000      0.511500000000000     -0.068300000000000
H      -0.999200000000000     -2.540200000000000      1.427600000000000
H      -1.752200000000000     -3.845600000000000      2.317600000000000
H      -6.523100000000000      0.383400000000000      1.496900000000000
H      -7.355500000000000     -0.655100000000000      0.342300000000000
H      -2.013100000000000     -5.123200000000000      0.115800000000000
H      -1.434900000000000     -3.685000000000000     -0.727000000000000
H      -6.276100000000000     -1.932900000000000      1.993000000000000
