86

N       6.439000000000000      0.180900000000000     -0.219100000000000
N      -6.396100000000000     -0.145800000000000      0.093200000000000
C       7.029900000000000     -1.179800000000000     -0.121900000000000
C       7.353400000000000      1.323000000000000     -0.469200000000000
C      -6.959500000000000      1.229000000000000      0.144200000000000
C      -6.897100000000000     -1.067100000000000     -0.957100000000000
C       8.546200000000001     -1.154600000000000      0.178800000000000
C       8.569400000000000      0.892200000000000     -1.322800000000000
C      -8.314500000000001      1.349100000000000     -0.590700000000000
C      -7.298300000000000     -0.295400000000000     -2.236200000000000
C       9.367000000000001     -0.263600000000000     -0.740300000000000
C      -8.323900000000000      0.803700000000000     -2.010200000000000
C       5.321600000000000      0.463800000000000      0.676000000000000
C      -6.102400000000000     -0.770100000000000      1.379200000000000
C       6.396400000000000     -2.095900000000000      0.960400000000000
C       6.767900000000000     -1.875300000000000     -1.478000000000000
C       6.607300000000000      2.392500000000000     -1.308600000000000
C       7.840800000000000      2.004900000000000      0.829200000000000
C      -7.199200000000000      1.788700000000000      1.573000000000000
C      -5.914400000000000      2.161600000000000     -0.511000000000000
C      -5.749300000000000     -2.019600000000000     -1.382300000000000
C      -8.078600000000000     -1.942800000000000     -0.482000000000000
C       4.025100000000000     -0.100000000000000      0.095400000000000
C      -4.764200000000000     -0.298100000000000      1.952400000000000
C       2.802600000000000      0.155900000000000      0.982900000000000
C      -3.578200000000000     -0.599100000000000      1.029600000000000
C       1.490600000000000     -0.340300000000000      0.369300000000000
C      -2.236600000000000     -0.116800000000000      1.592400000000000
C       0.297600000000000      0.006200000000000      1.264500000000000
C      -1.042500000000000     -0.486900000000000      0.708800000000000
H       8.702000000000000     -0.825500000000000      1.214300000000000
H       8.963699999999999     -2.169800000000000      0.138600000000000
H       9.247400000000001      1.740600000000000     -1.486800000000000
H       8.228300000000001      0.608700000000000     -2.327400000000000
H      -9.085500000000000      0.825800000000000     -0.010400000000000
H      -8.645000000000000      2.396100000000000     -0.621200000000000
H      -7.683200000000000     -0.984800000000000     -2.999700000000000
H      -6.403200000000000      0.151500000000000     -2.688900000000000
H       9.783700000000000     -0.857400000000000     -1.563100000000000
H      10.229600000000000      0.121300000000000     -0.182600000000000
H      -8.137200000000000      1.615500000000000     -2.724100000000000
H      -9.329300000000000      0.429500000000000     -2.239000000000000
H       5.147800000000000      1.540500000000000      0.776400000000000
H       5.497100000000000      0.132200000000000      1.703900000000000
H      -6.000000000000000     -1.856700000000000      1.284000000000000
H      -6.912300000000000     -0.656200000000000      2.106000000000000
H       5.346300000000000     -2.337000000000000      0.799900000000000
H       6.519000000000000     -1.685900000000000      1.968800000000000
H       6.910900000000000     -3.066600000000000      0.971800000000000
H       7.201700000000000     -1.335600000000000     -2.324200000000000
H       7.197100000000000     -2.884400000000000     -1.489200000000000
H       5.694900000000000     -1.977400000000000     -1.676600000000000
H       5.782000000000000      2.861900000000000     -0.764100000000000
H       6.193400000000000      1.956600000000000     -2.225900000000000
H       7.287200000000000      3.199500000000000     -1.607400000000000
H       8.308299999999999      1.300900000000000      1.522400000000000
H       8.585100000000001      2.778000000000000      0.603700000000000
H       7.029000000000000      2.502200000000000      1.370400000000000
H      -6.295100000000000      1.938000000000000      2.160900000000000
H      -7.907700000000000      1.179200000000000      2.143900000000000
H      -7.656600000000000      2.785600000000000      1.506900000000000
H      -4.973600000000000      2.164600000000000      0.051800000000000
H      -6.277400000000000      3.195900000000000     -0.540500000000000
H      -5.674600000000000      1.877900000000000     -1.539300000000000
H      -6.059400000000000     -2.649200000000000     -2.225400000000000
H      -4.865600000000000     -1.457700000000000     -1.706700000000000
H      -5.439500000000000     -2.699600000000000     -0.583000000000000
H      -8.904999999999999     -1.350200000000000     -0.081200000000000
H      -7.784400000000000     -2.656300000000000      0.294800000000000
H      -8.479900000000001     -2.534700000000000     -1.313500000000000
H       4.072700000000000     -1.167400000000000     -0.122100000000000
H       3.845300000000000      0.383800000000000     -0.875100000000000
H      -4.603100000000000     -0.814600000000000      2.907500000000000
H      -4.750300000000000      0.765900000000000      2.186700000000000
H       2.723300000000000      1.232700000000000      1.178100000000000
H       2.956500000000000     -0.332200000000000      1.953200000000000
H      -3.524100000000000     -1.680500000000000      0.854600000000000
H      -3.726500000000000     -0.122600000000000      0.054200000000000
H       1.540900000000000     -1.425700000000000      0.222900000000000
H       1.349800000000000      0.114400000000000     -0.618500000000000
H      -2.270700000000000      0.972400000000000      1.718600000000000
H      -2.089300000000000     -0.547400000000000      2.590500000000000
H       0.250700000000000      1.094200000000000      1.398200000000000
H       0.452700000000000     -0.428800000000000      2.259600000000000
H      -1.003900000000000     -1.576800000000000      0.591200000000000
H      -1.192800000000000     -0.065200000000000     -0.292600000000000
