86

O       0.860100000000000      1.502000000000000     -0.112500000000000
N      -0.288000000000000     -1.419500000000000      0.659700000000000
C       1.144900000000000     -1.325200000000000      0.956700000000000
C      -0.704600000000000     -1.681500000000000     -0.719500000000000
C       1.272800000000000     -0.555100000000000      2.296300000000000
C      -0.191600000000000     -0.648900000000000     -1.759900000000000
C       1.310300000000000      1.844400000000000      1.199800000000000
C      -0.545400000000000      1.540100000000000     -0.375900000000000
C       0.771100000000000      0.905600000000000      2.306500000000000
C      -0.757100000000000      0.785600000000000     -1.701100000000000
C       1.851000000000000     -2.696200000000000      1.096200000000000
C      -2.253800000000000     -1.759700000000000     -0.801900000000000
C       2.851900000000000      1.820900000000000      1.182400000000000
C      -1.058000000000000      2.994200000000000     -0.445500000000000
C       2.400700000000000     -3.316000000000000     -0.196900000000000
C      -2.905400000000000     -2.837800000000000      0.076700000000000
C       3.480700000000000      2.645900000000000      0.055100000000000
C      -2.557700000000000      3.148300000000000     -0.738000000000000
C       3.385000000000000     -2.454700000000000     -1.001700000000000
C      -4.433000000000000     -2.912400000000000     -0.085000000000000
C       5.013600000000000      2.544500000000000      0.022600000000000
C      -3.456200000000000      2.603400000000000      0.382400000000000
C       4.645600000000000     -2.042300000000000     -0.231600000000000
C      -5.236800000000000     -2.076700000000000      0.927000000000000
C       5.592300000000000      1.121300000000000      0.005600000000000
C       5.594700000000000     -1.183700000000000     -1.084500000000000
C       5.162000000000000      0.285500000000000     -1.206500000000000
C      -4.920300000000000      2.434800000000000     -0.046600000000000
C      -5.100600000000000     -0.556400000000000      0.804700000000000
C      -5.138400000000000      1.274000000000000     -1.026500000000000
C      -5.789600000000000      0.015600000000000     -0.437900000000000
H       1.670800000000000     -0.739900000000000      0.206500000000000
H      -0.328000000000000     -2.665100000000000     -1.015800000000000
H       2.324600000000000     -0.552200000000000      2.610300000000000
H       0.740600000000000     -1.102700000000000      3.086800000000000
H      -0.433800000000000     -1.043200000000000     -2.757000000000000
H       0.900300000000000     -0.599700000000000     -1.747800000000000
H       0.995800000000000      2.869400000000000      1.423000000000000
H      -1.085700000000000      1.009200000000000      0.405800000000000
H      -0.323100000000000      0.900200000000000      2.304300000000000
H       1.053800000000000      1.335100000000000      3.277100000000000
H      -0.266400000000000      1.350600000000000     -2.505300000000000
H      -1.819300000000000      0.752400000000000     -1.958500000000000
H      -0.711900000000000     -2.092900000000000      1.294500000000000
H       1.166200000000000     -3.416800000000000      1.563000000000000
H       2.689000000000000     -2.608900000000000      1.799100000000000
H      -2.535100000000000     -1.952500000000000     -1.845700000000000
H      -2.671600000000000     -0.785200000000000     -0.549100000000000
H       3.178300000000000      0.787600000000000      1.048000000000000
H       3.237200000000000      2.160800000000000      2.151100000000000
H      -0.838600000000000      3.511700000000000      0.495100000000000
H      -0.487000000000000      3.533900000000000     -1.212200000000000
H       1.573800000000000     -3.602000000000000     -0.853300000000000
H       2.903100000000000     -4.255300000000000      0.068600000000000
H      -2.664700000000000     -2.693600000000000      1.134500000000000
H      -2.481800000000000     -3.807100000000000     -0.215100000000000
H       3.199000000000000      3.698900000000000      0.176100000000000
H       3.083700000000000      2.330800000000000     -0.916100000000000
H      -2.795100000000000      2.689500000000000     -1.701700000000000
H      -2.776200000000000      4.216900000000000     -0.861300000000000
H       2.875300000000000     -1.571100000000000     -1.391300000000000
H       3.689200000000000     -3.033500000000000     -1.883500000000000
H      -4.724900000000000     -3.958700000000000      0.076300000000000
H      -4.725700000000000     -2.675400000000000     -1.113200000000000
H       5.415400000000000      3.063800000000000      0.901700000000000
H       5.380900000000000      3.092200000000000     -0.853900000000000
H      -3.416000000000000      3.304000000000000      1.225800000000000
H      -3.082100000000000      1.650600000000000      0.760200000000000
H       5.178300000000000     -2.952500000000000      0.070200000000000
H       4.384100000000000     -1.507500000000000      0.686300000000000
H      -6.296900000000000     -2.345300000000000      0.836800000000000
H      -4.932900000000000     -2.371300000000000      1.939500000000000
H       5.339300000000000      0.608700000000000      0.939500000000000
H       6.687200000000000      1.200100000000000      0.001900000000000
H       5.666000000000000     -1.619300000000000     -2.088700000000000
H       6.602700000000000     -1.229100000000000     -0.654500000000000
H       5.631100000000000      0.715800000000000     -2.100000000000000
H       4.081400000000000      0.341800000000000     -1.363200000000000
H      -5.249900000000000      3.367700000000000     -0.521000000000000
H      -5.548200000000000      2.303800000000000      0.842200000000000
H      -4.047800000000000     -0.283200000000000      0.854300000000000
H      -5.562400000000000     -0.098900000000000      1.689100000000000
H      -4.199900000000000      0.983100000000000     -1.508700000000000
H      -5.792600000000000      1.627900000000000     -1.833800000000000
H      -5.830200000000000     -0.732100000000000     -1.237500000000000
H      -6.834100000000000      0.239000000000000     -0.185300000000000
