86

N       5.545800000000000     -1.119100000000000     -0.236400000000000
N      -5.541500000000000      1.094700000000000     -0.290600000000000
C       9.707200000000000     -0.231300000000000      0.404700000000000
C      -9.710900000000001      0.266500000000000      0.378200000000000
C      11.073900000000000      0.441100000000000      0.286500000000000
C     -11.077800000000000     -0.411200000000000      0.300500000000000
C       9.277400000000000     -0.825300000000000     -0.943200000000000
C       8.658600000000000      0.761100000000000      0.924400000000000
C      -9.266700000000000      0.750600000000000     -1.008600000000000
C      -8.669499999999999     -0.682800000000000      0.985600000000000
C       6.847700000000000     -0.462100000000000     -0.347400000000000
C      -6.843600000000000      0.432600000000000     -0.361800000000000
C       7.889300000000000     -1.460100000000000     -0.863400000000000
C       7.270500000000000      0.126300000000000      1.003300000000000
C      -7.878000000000000      1.387800000000000     -0.966000000000000
C      -7.280900000000000     -0.045600000000000      1.027300000000000
C      10.997500000000000      1.599200000000000     -0.722500000000000
C      11.502100000000000      0.991800000000000      1.657000000000000
C      12.116300000000001     -0.581900000000000     -0.195600000000000
C     -10.994100000000000     -1.646200000000000     -0.612200000000000
C     -11.520500000000000     -0.850400000000000      1.706200000000000
C     -12.113200000000001      0.571500000000000     -0.272000000000000
C       4.465100000000000     -0.141400000000000     -0.271000000000000
C      -4.462600000000000      0.115800000000000     -0.236600000000000
C       3.089200000000000     -0.806800000000000     -0.207600000000000
C      -3.085800000000000      0.781900000000000     -0.213200000000000
C       1.932900000000000      0.194900000000000     -0.282500000000000
C      -1.931000000000000     -0.224200000000000     -0.196800000000000
C       0.579300000000000     -0.514200000000000     -0.200500000000000
C      -0.576700000000000      0.486700000000000     -0.245800000000000
H       9.774100000000001     -1.056800000000000      1.128100000000000
H      -9.782900000000000      1.147200000000000      1.032800000000000
H       9.969400000000000     -1.605900000000000     -1.274600000000000
H       9.235200000000001     -0.069600000000000     -1.732700000000000
H       8.568000000000000      1.640800000000000      0.280800000000000
H       8.907999999999999      1.115400000000000      1.929500000000000
H      -9.953700000000000      1.503100000000000     -1.407900000000000
H      -9.218400000000001     -0.065800000000000     -1.734900000000000
H      -8.574600000000000     -1.611100000000000      0.415000000000000
H      -8.929399999999999     -0.955500000000000      2.013200000000000
H       6.793800000000000      0.348300000000000     -1.088100000000000
H      -6.784300000000000     -0.434200000000000     -1.035000000000000
H       7.933000000000000     -2.336600000000000     -0.203200000000000
H       7.605200000000000     -1.826600000000000     -1.858000000000000
H       6.562700000000000      0.891000000000000      1.342200000000000
H       7.278200000000000     -0.659600000000000      1.770300000000000
H      -7.926300000000000      2.314200000000000     -0.378200000000000
H      -7.583400000000000      1.673400000000000     -1.983700000000000
H      -6.578100000000000     -0.781700000000000      1.433000000000000
H      -7.294400000000000      0.799000000000000      1.729100000000000
H      10.750500000000001      1.283400000000000     -1.739000000000000
H      10.315300000000001      2.399300000000000     -0.425100000000000
H      11.984700000000000      2.074800000000000     -0.799400000000000
H      11.425599999999999      0.226000000000000      2.437000000000000
H      10.913300000000000      1.861200000000000      1.966200000000000
H      12.546400000000000      1.326000000000000      1.631100000000000
H      12.095900000000000     -1.491200000000000      0.415400000000000
H      11.977100000000000     -0.865600000000000     -1.243600000000000
H      13.128600000000000     -0.165800000000000     -0.125400000000000
H     -11.981600000000000     -2.125100000000000     -0.660700000000000
H     -10.316500000000000     -2.421000000000000     -0.245400000000000
H     -10.736599999999999     -1.412700000000000     -1.648200000000000
H     -12.565200000000001     -1.184200000000000      1.696700000000000
H     -10.936600000000000     -1.693200000000000      2.089500000000000
H     -11.449900000000000     -0.025000000000000      2.423400000000000
H     -13.127000000000001      0.163700000000000     -0.178800000000000
H     -11.963200000000001      0.770400000000000     -1.337800000000000
H     -12.096800000000000      1.526600000000000      0.264700000000000
H       5.421100000000000     -1.769600000000000     -1.012100000000000
H      -5.407900000000000      1.681100000000000     -1.114500000000000
H       4.542400000000000      0.554000000000000      0.571500000000000
H       4.521200000000000      0.449500000000000     -1.193900000000000
H      -4.549300000000000     -0.510000000000000      0.657900000000000
H      -4.511700000000000     -0.546800000000000     -1.109900000000000
H       2.993100000000000     -1.523800000000000     -1.033300000000000
H       3.009100000000000     -1.383100000000000      0.723100000000000
H      -3.010600000000000      1.433100000000000      0.667100000000000
H      -2.982900000000000      1.428100000000000     -1.094700000000000
H       2.021600000000000      0.916200000000000      0.538800000000000
H       1.997700000000000      0.760900000000000     -1.219600000000000
H      -1.995800000000000     -0.839300000000000      0.708700000000000
H      -2.021000000000000     -0.900600000000000     -1.055400000000000
H       0.523400000000000     -1.096100000000000      0.727500000000000
H       0.486100000000000     -1.222500000000000     -1.032700000000000
H      -0.509700000000000      1.084900000000000     -1.162700000000000
H      -0.494000000000000      1.180300000000000      0.599800000000000
