86

N       5.568700000000000     -4.044300000000000     -0.019800000000000
N      -8.603100000000000     -2.704500000000000      0.481100000000000
C       0.950700000000000      1.541100000000000      0.110300000000000
C      -0.523800000000000      1.146000000000000      0.059200000000000
C       3.815000000000000      1.015600000000000     -0.484000000000000
C      -3.391800000000000      1.690500000000000      0.616900000000000
C       1.518200000000000      1.699000000000000     -1.306000000000000
C       1.760000000000000      0.512000000000000      0.909700000000000
C      -1.325700000000000      2.153700000000000     -0.774000000000000
C      -1.102100000000000      1.027300000000000      1.475100000000000
C       3.005900000000000      2.045000000000000     -1.283000000000000
C       3.247800000000000      0.857800000000000      0.932500000000000
C      -2.813600000000000      1.808500000000000     -0.798900000000000
C      -2.590200000000000      0.682600000000000      1.450200000000000
C       5.289900000000000      1.409700000000000     -0.434000000000000
C      -4.866800000000000      1.296700000000000      0.566300000000000
C       6.142900000000000      0.342800000000000      0.311200000000000
C      -5.053900000000000     -0.101900000000000     -0.080600000000000
C       5.826100000000000      1.516800000000000     -1.878700000000000
C       5.433000000000000      2.790700000000000      0.234300000000000
C      -5.652600000000000      2.373800000000000     -0.199500000000000
C      -5.404800000000000      1.233100000000000      2.009400000000000
C       6.085500000000000     -1.076500000000000     -0.270100000000000
C      -6.495500000000000     -0.626300000000000     -0.131900000000000
C       6.916600000000000     -2.049800000000000      0.577900000000000
C      -6.543800000000000     -2.039000000000000     -0.730700000000000
C       6.921000000000000     -3.488900000000000      0.034200000000000
C      -7.966700000000000     -2.614700000000000     -0.833000000000000
C       7.786800000000000     -4.388700000000000      0.915400000000000
C      -7.933800000000000     -4.008400000000000     -1.459200000000000
H       1.041100000000000      2.511600000000000      0.619200000000000
H      -0.611700000000000      0.163000000000000     -0.425600000000000
H       3.697600000000000      0.057300000000000     -1.005600000000000
H      -3.293900000000000      2.674000000000000      1.099400000000000
H       1.366400000000000      0.777000000000000     -1.881200000000000
H       1.021400000000000      2.508600000000000     -1.849300000000000
H       1.432400000000000      0.467100000000000      1.952700000000000
H       1.625800000000000     -0.490000000000000      0.482900000000000
H      -1.192600000000000      3.167500000000000     -0.375700000000000
H      -0.994500000000000      2.165700000000000     -1.816800000000000
H      -0.606000000000000      0.236300000000000      2.045500000000000
H      -0.955000000000000      1.965900000000000      2.024300000000000
H       3.341500000000000      2.099900000000000     -2.323400000000000
H       3.085200000000000      3.050500000000000     -0.860100000000000
H       3.355000000000000      1.773400000000000      1.521500000000000
H       3.758400000000000      0.058600000000000      1.478800000000000
H      -3.321300000000000      2.590400000000000     -1.372600000000000
H      -2.916300000000000      0.875000000000000     -1.360300000000000
H      -2.665200000000000     -0.334100000000000      1.055100000000000
H      -2.933900000000000      0.656300000000000      2.489000000000000
H       5.871600000000000      0.316500000000000      1.373200000000000
H       7.192600000000000      0.669400000000000      0.302200000000000
H      -4.475200000000000     -0.860400000000000      0.454100000000000
H      -4.688300000000000     -0.096400000000000     -1.112500000000000
H       5.476600000000000      2.422400000000000     -2.386200000000000
H       5.534400000000000      0.657500000000000     -2.492300000000000
H       6.921400000000000      1.572100000000000     -1.885400000000000
H       5.098800000000000      2.806400000000000      1.274500000000000
H       4.944700000000000      3.603300000000000     -0.308500000000000
H       6.496200000000000      3.065000000000000      0.266700000000000
H      -6.733100000000000      2.259600000000000     -0.055200000000000
H      -5.392500000000000      3.381100000000000      0.145500000000000
H      -5.477700000000000      2.324200000000000     -1.279200000000000
H      -6.500700000000000      1.231300000000000      2.031600000000000
H      -5.079400000000000      0.333500000000000      2.542500000000000
H      -5.088400000000000      2.107300000000000      2.590700000000000
H       6.463700000000000     -1.086700000000000     -1.297700000000000
H       5.049200000000000     -1.422200000000000     -0.292200000000000
H      -7.120400000000000      0.041100000000000     -0.735300000000000
H      -6.912500000000000     -0.648300000000000      0.878600000000000
H       7.950800000000000     -1.685200000000000      0.626200000000000
H       6.534800000000000     -2.045600000000000      1.607600000000000
H      -5.918700000000000     -2.708800000000000     -0.125000000000000
H      -6.097300000000000     -2.016200000000000     -1.733200000000000
H       7.338800000000000     -3.488600000000000     -0.979600000000000
H      -8.573499999999999     -1.960900000000000     -1.470800000000000
H       7.403500000000000     -4.437700000000000      1.941000000000000
H       8.814800000000000     -4.012800000000000      0.958300000000000
H       7.825200000000000     -5.409600000000000      0.519200000000000
H      -7.350400000000000     -4.709600000000000     -0.851700000000000
H      -7.483200000000000     -3.972700000000000     -2.457000000000000
H      -8.945200000000000     -4.415700000000000     -1.568700000000000
H       5.607600000000000     -5.012600000000000     -0.336400000000000
H       5.015800000000000     -3.546000000000000     -0.715400000000000
H      -9.523300000000001     -3.133500000000000      0.388300000000000
H      -8.767600000000000     -1.770200000000000      0.852100000000000
