86

O       8.160800000000000     -0.611200000000000     -0.418700000000000
N       2.605900000000000      0.142400000000000      0.282300000000000
C       4.876900000000000      1.135600000000000      0.140100000000000
C       2.002800000000000      1.358800000000000     -0.280000000000000
C       3.970600000000000     -0.058100000000000     -0.222100000000000
C       0.584900000000000      1.508100000000000      0.268600000000000
C       4.287900000000000      2.436700000000000     -0.415200000000000
C       2.841400000000000      2.602700000000000      0.046900000000000
C       6.302900000000000      0.904700000000000     -0.370600000000000
C       4.545500000000000     -1.362400000000000      0.347200000000000
C      -0.236100000000000      0.240900000000000     -0.001600000000000
C      -0.101900000000000      2.740700000000000     -0.333300000000000
C       6.881400000000000     -0.403100000000000      0.169700000000000
C      -2.361100000000000      1.616000000000000     -0.109400000000000
C       5.973900000000000     -1.592900000000000     -0.141500000000000
C      -1.674500000000000      0.383800000000000      0.493000000000000
C      -1.540300000000000      2.883400000000000      0.160900000000000
C      -3.779400000000000      1.764800000000000      0.437800000000000
C      -4.728900000000000      0.744900000000000     -0.191700000000000
C       8.960200000000000     -1.480800000000000      0.370000000000000
C      -6.169900000000000      0.859900000000000      0.313800000000000
C      10.316599999999999     -1.645500000000000     -0.300600000000000
C      -7.104400000000000     -0.207900000000000     -0.261300000000000
C      -8.534599999999999     -0.024800000000000      0.254400000000000
C      11.225099999999999     -2.584100000000000      0.488200000000000
C      -9.518800000000001     -1.060000000000000     -0.298200000000000
C      12.562799999999999     -2.779700000000000     -0.207200000000000
C     -10.952999999999999     -0.861400000000000      0.197400000000000
C     -11.877500000000000     -1.963100000000000     -0.325800000000000
C     -13.302500000000000     -1.788600000000000      0.198700000000000
C     -14.216799999999999     -2.899800000000000     -0.292000000000000
H       4.922000000000000      1.226800000000000      1.235500000000000
H       1.948100000000000      1.245200000000000     -1.371600000000000
H       3.924600000000000     -0.164300000000000     -1.315100000000000
H       0.633700000000000      1.649400000000000      1.358500000000000
H       4.321400000000000      2.427500000000000     -1.512100000000000
H       4.882900000000000      3.295400000000000     -0.083100000000000
H       2.448900000000000      3.493000000000000     -0.453800000000000
H       2.826000000000000      2.801600000000000      1.126300000000000
H       2.629100000000000      0.214500000000000      1.299900000000000
H       6.319100000000000      0.888700000000000     -1.468700000000000
H       6.953200000000000      1.738900000000000     -0.078200000000000
H       3.920300000000000     -2.212600000000000      0.047600000000000
H       4.540100000000000     -1.334000000000000      1.444800000000000
H       0.202300000000000     -0.630900000000000      0.497200000000000
H      -0.246000000000000      0.022100000000000     -1.077200000000000
H      -0.098100000000000      2.679500000000000     -1.428900000000000
H       0.419000000000000      3.662600000000000     -0.058000000000000
H       6.985400000000000     -0.296100000000000      1.258400000000000
H      -2.412600000000000      1.486000000000000     -1.199300000000000
H       6.355900000000000     -2.510400000000000      0.318200000000000
H       5.972200000000000     -1.781900000000000     -1.222900000000000
H      -2.217600000000000     -0.531100000000000      0.233900000000000
H      -1.672400000000000      0.452800000000000      1.588400000000000
H      -1.534100000000000      3.101000000000000      1.236800000000000
H      -2.005800000000000      3.744100000000000     -0.334300000000000
H      -4.159400000000000      2.769000000000000      0.210700000000000
H      -3.786300000000000      1.665700000000000      1.530100000000000
H      -4.378000000000000     -0.271900000000000      0.014900000000000
H      -4.725700000000000      0.865200000000000     -1.282200000000000
H       8.486700000000001     -2.462600000000000      0.465900000000000
H       9.095100000000000     -1.053900000000000      1.371000000000000
H      -6.556400000000000      1.855600000000000      0.063200000000000
H      -6.172300000000000      0.785900000000000      1.408500000000000
H      10.790400000000000     -0.662200000000000     -0.412300000000000
H      10.171799999999999     -2.025700000000000     -1.319800000000000
H      -6.738700000000000     -1.204600000000000      0.012600000000000
H      -7.098800000000000     -0.149400000000000     -1.356200000000000
H      -8.534300000000000     -0.080600000000000      1.350100000000000
H      -8.888100000000000      0.979300000000000     -0.011200000000000
H      10.739400000000000     -3.559300000000000      0.609300000000000
H      11.396000000000001     -2.179800000000000      1.492700000000000
H      -9.507500000000000     -1.018100000000000     -1.394400000000000
H      -9.172700000000001     -2.062300000000000     -0.016400000000000
H      13.090299999999999     -1.826800000000000     -0.317900000000000
H      13.198100000000000     -3.453900000000000      0.375700000000000
H      12.427899999999999     -3.215700000000000     -1.202200000000000
H     -10.962800000000000     -0.864300000000000      1.294100000000000
H     -11.321800000000000      0.118900000000000     -0.127300000000000
H     -11.883500000000000     -1.949100000000000     -1.422500000000000
H     -11.491899999999999     -2.942600000000000     -0.017300000000000
H     -13.702900000000000     -0.821400000000000     -0.126800000000000
H     -13.298700000000000     -1.785900000000000      1.294900000000000
H     -13.861700000000001     -3.878400000000000      0.046500000000000
H     -15.230700000000001     -2.754500000000000      0.093700000000000
H     -14.267600000000000     -2.911700000000000     -1.385400000000000
