86

N      -1.836200000000000      0.938100000000000      0.350500000000000
N       1.843500000000000      0.961300000000000     -0.339500000000000
C      -0.400900000000000      0.921700000000000      0.651700000000000
C       0.408400000000000      0.959700000000000     -0.641100000000000
C      -2.626000000000000      0.373200000000000      1.462800000000000
C      -2.252800000000000      2.317300000000000      0.020700000000000
C       2.270700000000000      2.333200000000000      0.006800000000000
C       2.629200000000000      0.403700000000000     -1.458400000000000
C      -2.408500000000000     -1.138400000000000      1.650400000000000
C      -3.665000000000000      2.440600000000000     -0.580700000000000
C       3.683700000000000      2.438400000000000      0.609800000000000
C       2.400100000000000     -1.103800000000000     -1.664100000000000
C      -3.382700000000000     -1.779000000000000      2.653400000000000
C      -3.840800000000000      1.640300000000000     -1.876100000000000
C       3.853000000000000      1.621300000000000      1.895600000000000
C       3.369600000000000     -1.739800000000000     -2.674600000000000
C      -4.863000000000000     -1.759500000000000      2.247100000000000
C      -5.288500000000000      1.605100000000000     -2.385900000000000
C       5.300300000000000      1.568900000000000      2.405200000000000
C       4.849900000000000     -1.736600000000000     -2.267900000000000
C      -5.169500000000000     -2.626500000000000      1.021800000000000
C      -6.315400000000000      0.966100000000000     -1.439600000000000
C       6.322500000000000      0.933300000000000      1.451400000000000
C       5.149400000000000     -2.620600000000000     -1.053200000000000
C      -6.592600000000000     -2.443500000000000      0.476600000000000
C      -5.950000000000000     -0.458600000000000     -1.016300000000000
C       5.946200000000000     -0.483300000000000      1.011000000000000
C       6.573700000000000     -2.455100000000000     -0.505400000000000
C      -6.947200000000000     -1.028600000000000     -0.004300000000000
C       6.939100000000000     -1.048900000000000     -0.007700000000000
H      -0.107500000000000      0.002700000000000      1.169000000000000
H      -0.151300000000000      1.739500000000000      1.337700000000000
H       0.162300000000000      1.812000000000000     -1.284200000000000
H       0.114400000000000      0.072600000000000     -1.211100000000000
H      -2.407400000000000      0.900000000000000      2.400600000000000
H      -3.685500000000000      0.526700000000000      1.257100000000000
H      -2.199100000000000      2.949700000000000      0.917200000000000
H      -1.573300000000000      2.768700000000000     -0.709400000000000
H       2.221300000000000      2.978000000000000     -0.881000000000000
H       1.590000000000000      2.775400000000000      0.742600000000000
H       2.414700000000000      0.943500000000000     -2.389800000000000
H       3.689800000000000      0.546600000000000     -1.250800000000000
H      -2.475400000000000     -1.648700000000000      0.683400000000000
H      -1.399700000000000     -1.330400000000000      2.031100000000000
H      -4.409900000000000      2.151500000000000      0.165100000000000
H      -3.857900000000000      3.499700000000000     -0.795200000000000
H       4.426600000000000      2.152700000000000     -0.139300000000000
H       3.884300000000000      3.493300000000000      0.837200000000000
H       2.463600000000000     -1.625800000000000     -0.703100000000000
H       1.389900000000000     -1.284900000000000     -2.046400000000000
H      -3.280100000000000     -1.266000000000000      3.617800000000000
H      -3.076600000000000     -2.819100000000000      2.821500000000000
H      -3.472600000000000      0.616200000000000     -1.756300000000000
H      -3.212300000000000      2.093000000000000     -2.653600000000000
H       3.477000000000000      0.601600000000000      1.763400000000000
H       3.227800000000000      2.069500000000000      2.678300000000000
H       3.271100000000000     -1.214500000000000     -3.632800000000000
H       3.055600000000000     -2.775400000000000     -2.855100000000000
H      -5.456900000000000     -2.134400000000000      3.090400000000000
H      -5.185300000000000     -0.727100000000000      2.092100000000000
H      -5.613000000000000      2.628200000000000     -2.612300000000000
H      -5.302700000000000      1.058800000000000     -3.337400000000000
H       5.632600000000000      2.586700000000000      2.643800000000000
H       5.310000000000000      1.011100000000000      3.350000000000000
H       5.441000000000000     -2.106000000000000     -3.115600000000000
H       5.180100000000000     -0.708700000000000     -2.100500000000000
H      -4.453100000000000     -2.441800000000000      0.216700000000000
H      -5.038700000000000     -3.680300000000000      1.299100000000000
H      -6.441300000000000      1.596900000000000     -0.552400000000000
H      -7.289800000000000      0.952200000000000     -1.943700000000000
H       6.453400000000000      1.573800000000000      0.571800000000000
H       7.296600000000000      0.905900000000000      1.955400000000000
H       4.434200000000000     -2.440100000000000     -0.245900000000000
H       5.010500000000000     -3.670000000000000     -1.343100000000000
H      -7.314500000000000     -2.742300000000000      1.246400000000000
H      -6.728200000000000     -3.139500000000000     -0.360800000000000
H      -4.955900000000000     -0.450600000000000     -0.565500000000000
H      -5.903800000000000     -1.107200000000000     -1.898900000000000
H       4.952200000000000     -0.462300000000000      0.560200000000000
H       5.894700000000000     -1.142100000000000      1.885700000000000
H       7.293500000000000     -2.750300000000000     -1.278700000000000
H       6.703700000000000     -3.162200000000000      0.323500000000000
H      -7.022300000000000     -0.356500000000000      0.858400000000000
H      -7.946200000000000     -1.056500000000000     -0.456800000000000
H       7.019500000000000     -0.367200000000000     -0.862200000000000
H       7.937700000000000     -1.089900000000000      0.444600000000000
