86

N      -0.618600000000000     -0.226800000000000      0.070100000000000
N      -1.526100000000000     -0.132800000000000     -1.043500000000000
C       2.289300000000000     -0.471500000000000      0.520000000000000
C       1.489000000000000      0.749300000000000      0.970900000000000
C       0.216600000000000      0.982400000000000      0.089500000000000
C       4.795800000000000     -1.773900000000000     -0.508100000000000
C       3.503100000000000     -0.689200000000000      1.430700000000000
C       2.717000000000000     -0.327000000000000     -0.945100000000000
C       4.352900000000000     -1.873800000000000      0.968600000000000
C       3.566800000000000     -1.511600000000000     -1.406600000000000
C      -0.632700000000000      2.234000000000000      0.497500000000000
C       1.193600000000000      0.637700000000000      2.486700000000000
C       5.446200000000000     -3.106100000000000     -0.926800000000000
C       5.844600000000000     -0.658800000000000     -0.685200000000000
C      -1.711000000000000      2.640100000000000     -0.545600000000000
C       0.182400000000000      3.486300000000000      0.925200000000000
C      -2.642100000000000     -1.036300000000000     -0.765600000000000
C      -3.393700000000000     -0.562400000000000      0.482600000000000
C      -2.140200000000000     -2.474300000000000     -0.593400000000000
C       0.274700000000000     -0.508600000000000      2.886900000000000
C      -4.043900000000000     -2.954700000000000      1.009500000000000
C      -4.537600000000000     -1.511900000000000      0.838100000000000
C      -3.283400000000000     -3.424400000000000     -0.237700000000000
C      -2.627800000000000      3.803700000000000     -0.151800000000000
C       1.078300000000000      4.124400000000000     -0.138400000000000
C      -0.839000000000000     -0.534900000000000     -2.273200000000000
C      -5.211400000000000     -3.891500000000000      1.313900000000000
C      -3.692800000000000      4.118800000000000     -1.189900000000000
C       1.731500000000000      5.396700000000000      0.384900000000000
C      -1.781600000000000     -0.502900000000000     -3.464300000000000
H       1.700200000000000     -1.391200000000000      0.597700000000000
H       2.144700000000000      1.620800000000000      0.852700000000000
H       0.600900000000000      1.225100000000000     -0.905600000000000
H       3.203400000000000     -0.936600000000000      2.453400000000000
H       4.117300000000000      0.217400000000000      1.481800000000000
H       3.270300000000000      0.608200000000000     -1.090800000000000
H       1.858300000000000     -0.289100000000000     -1.613900000000000
H       5.230100000000000     -1.964600000000000      1.621600000000000
H       3.768000000000000     -2.792800000000000      1.110900000000000
H       2.928900000000000     -2.405900000000000     -1.421400000000000
H       3.884600000000000     -1.344500000000000     -2.443600000000000
H      -1.193100000000000      1.948000000000000      1.400700000000000
H       2.112400000000000      0.610300000000000      3.079700000000000
H       0.703900000000000      1.547400000000000      2.844300000000000
H      -0.045200000000000     -1.056400000000000     -0.042200000000000
H       6.323000000000000     -3.329700000000000     -0.308600000000000
H       5.772600000000000     -3.075600000000000     -1.972500000000000
H       4.744700000000000     -3.941500000000000     -0.822300000000000
H       6.729000000000000     -0.851200000000000     -0.067000000000000
H       5.459700000000000      0.326200000000000     -0.405800000000000
H       6.177600000000000     -0.596000000000000     -1.727500000000000
H      -3.376800000000000     -1.003000000000000     -1.578700000000000
H      -1.228100000000000      2.865400000000000     -1.504200000000000
H      -2.415400000000000      1.837900000000000     -0.732500000000000
H       0.818000000000000      3.253900000000000      1.782800000000000
H      -0.500000000000000      4.245400000000000      1.324500000000000
H      -2.741000000000000     -0.491900000000000      1.359600000000000
H      -3.814500000000000      0.436900000000000      0.320800000000000
H      -1.687500000000000     -2.866900000000000     -1.509300000000000
H      -1.395700000000000     -2.573200000000000      0.205000000000000
H      -0.761800000000000     -0.323100000000000      2.600000000000000
H       0.596700000000000     -1.474800000000000      2.492400000000000
H       0.272800000000000     -0.598000000000000      3.979600000000000
H      -3.355800000000000     -2.984600000000000      1.865100000000000
H      -5.017900000000000     -1.169000000000000      1.762400000000000
H      -5.300700000000000     -1.469000000000000      0.050300000000000
H      -3.971600000000000     -3.495700000000000     -1.090000000000000
H      -2.880300000000000     -4.430900000000000     -0.072000000000000
H      -2.043100000000000      4.718400000000000     -0.013500000000000
H      -3.114100000000000      3.579300000000000      0.804800000000000
H       0.487500000000000      4.380200000000000     -1.024300000000000
H       1.855800000000000      3.426200000000000     -0.462900000000000
H      -0.071200000000000      0.205200000000000     -2.519900000000000
H      -0.315500000000000     -1.496300000000000     -2.220200000000000
H      -4.856700000000000     -4.915800000000000      1.469500000000000
H      -5.734900000000000     -3.576600000000000      2.222800000000000
H      -5.936300000000000     -3.905100000000000      0.492900000000000
H      -4.308400000000000      4.961700000000000     -0.860600000000000
H      -4.350900000000000      3.258500000000000     -1.348100000000000
H      -3.236800000000000      4.383100000000000     -2.149200000000000
H       2.358300000000000      5.185300000000000      1.257000000000000
H       2.364900000000000      5.842100000000000     -0.388700000000000
H       0.977400000000000      6.136200000000000      0.672800000000000
H      -2.464600000000000     -1.357500000000000     -3.483300000000000
H      -2.367700000000000      0.422300000000000     -3.494100000000000
H      -1.200700000000000     -0.547700000000000     -4.392700000000000
