86

O       2.189300000000000     -4.286400000000000      0.041000000000000
N       1.598700000000000     -2.576000000000000      1.494800000000000
C      -2.924700000000000     -0.602000000000000     -0.181700000000000
C      -2.462300000000000     -2.014300000000000     -0.566500000000000
C      -4.040100000000000     -0.153000000000000     -1.150900000000000
C      -3.361000000000000     -0.573400000000000      1.297600000000000
C      -1.334700000000000     -2.511900000000000      0.363500000000000
C      -4.650000000000000      1.234600000000000     -0.902600000000000
C      -2.058900000000000     -2.106700000000000     -2.050800000000000
C      -2.437900000000000      0.249600000000000      2.208900000000000
C      -3.692900000000000      3.282000000000000      0.354400000000000
C      -3.637900000000000      2.386200000000000     -0.902100000000000
C      -2.216300000000000      1.716000000000000      1.814800000000000
C      -3.504100000000000      2.539600000000000      1.695700000000000
C      -1.081700000000000     -4.025300000000000      0.334900000000000
C      -0.894400000000000     -1.182600000000000     -2.418900000000000
C      -2.678800000000000      4.424400000000000      0.218800000000000
C       0.086600000000000     -4.430000000000000      1.235600000000000
C       2.553100000000000     -0.765100000000000      0.129000000000000
C       1.737800000000000      0.445500000000000      0.635600000000000
C       3.899900000000000     -0.407600000000000     -0.538200000000000
C      -0.515700000000000     -1.326000000000000     -3.885400000000000
C       2.768000000000000     -1.756900000000000      1.277800000000000
C       1.478900000000000      1.529100000000000     -0.418700000000000
C       4.835500000000000      0.467000000000000      0.306400000000000
C       1.408400000000000     -3.788200000000000      0.847300000000000
C       1.619900000000000      2.962100000000000      0.103200000000000
C       5.556800000000000      1.561300000000000     -0.485800000000000
C       2.982900000000000      3.380100000000000      0.673600000000000
C       4.690300000000000      2.609900000000000     -1.198400000000000
C       4.085400000000000      3.718100000000000     -0.333100000000000
H      -2.070300000000000      0.066100000000000     -0.306300000000000
H      -3.315300000000000     -2.695100000000000     -0.430700000000000
H      -4.853500000000000     -0.889800000000000     -1.141800000000000
H      -3.660500000000000     -0.115100000000000     -2.176700000000000
H      -3.464400000000000     -1.582300000000000      1.714900000000000
H      -4.375800000000000     -0.174800000000000      1.387100000000000
H      -1.548000000000000     -2.283700000000000      1.409600000000000
H      -0.424400000000000     -1.959900000000000      0.130600000000000
H      -5.257800000000000      1.226200000000000      0.006000000000000
H      -5.370200000000000      1.420200000000000     -1.711300000000000
H      -2.914200000000000     -1.929500000000000     -2.710900000000000
H      -1.764000000000000     -3.138900000000000     -2.276000000000000
H      -1.456800000000000     -0.233800000000000      2.274400000000000
H      -2.854400000000000      0.222900000000000      3.224000000000000
H      -4.689200000000000      3.744200000000000      0.386100000000000
H      -2.618400000000000      2.027400000000000     -1.073500000000000
H      -3.858400000000000      3.019700000000000     -1.772600000000000
H      -1.591600000000000      2.172900000000000      2.594000000000000
H      -1.611100000000000      1.770900000000000      0.906600000000000
H      -3.501500000000000      3.288600000000000      2.499800000000000
H      -4.387300000000000      1.928700000000000      1.903600000000000
H      -0.855700000000000     -4.346400000000000     -0.687200000000000
H      -1.985800000000000     -4.557600000000000      0.651900000000000
H      -0.006600000000000     -1.412100000000000     -1.826900000000000
H      -1.149800000000000     -0.133900000000000     -2.241700000000000
H      -1.652600000000000      4.049600000000000      0.150500000000000
H      -2.736800000000000      5.101400000000000      1.077600000000000
H      -2.880100000000000      5.014800000000000     -0.681600000000000
H      -0.145100000000000     -4.194600000000000      2.281500000000000
H       0.223800000000000     -5.516900000000000      1.188000000000000
H       1.959900000000000     -1.261800000000000     -0.649500000000000
H       2.206100000000000      0.865500000000000      1.530100000000000
H       0.761000000000000      0.084900000000000      0.984400000000000
H       3.702200000000000      0.050000000000000     -1.511100000000000
H       4.430100000000000     -1.336500000000000     -0.789500000000000
H      -1.358000000000000     -1.067000000000000     -4.534900000000000
H       0.318000000000000     -0.659600000000000     -4.128500000000000
H      -0.207700000000000     -2.351600000000000     -4.112900000000000
H       2.995000000000000     -1.245300000000000      2.219300000000000
H       3.607400000000000     -2.427300000000000      1.060600000000000
H       2.085700000000000      1.397800000000000     -1.312100000000000
H       0.446300000000000      1.407500000000000     -0.773000000000000
H       4.331400000000000      0.904000000000000      1.166100000000000
H       5.601300000000000     -0.188500000000000      0.742600000000000
H       0.872300000000000      3.099100000000000      0.895900000000000
H       1.338500000000000      3.657200000000000     -0.697600000000000
H       6.174100000000000      1.066300000000000     -1.247300000000000
H       6.258800000000000      2.074200000000000      0.183400000000000
H       0.898900000000000     -2.237100000000000      2.148300000000000
H       3.342000000000000      2.679100000000000      1.426500000000000
H       2.800000000000000      4.307300000000000      1.235900000000000
H       3.931000000000000      2.150300000000000     -1.830700000000000
H       5.359200000000000      3.118300000000000     -1.908000000000000
H       3.696100000000000      4.491600000000000     -1.008400000000000
H       4.904500000000000      4.197600000000000      0.219100000000000
