87

N       4.040900000000000     -0.211900000000000     -1.351900000000000
N      -3.480200000000000     -1.269600000000000     -0.765400000000000
C       1.636300000000000      0.533300000000000     -1.003100000000000
C      -1.252300000000000     -0.053600000000000     -0.623300000000000
C       1.092700000000000     -0.899300000000000     -1.076300000000000
C       0.752100000000000      1.405800000000000     -0.103300000000000
C      -0.367900000000000     -0.926700000000000     -1.522800000000000
C      -0.708500000000000      1.378700000000000     -0.549900000000000
C       3.089600000000000      0.537500000000000     -0.504300000000000
C      -2.704000000000000     -0.056900000000000     -1.122900000000000
C       3.574800000000000      1.997800000000000     -0.300200000000000
C      -3.432700000000000      1.228100000000000     -0.655500000000000
C       5.009200000000000      2.136300000000000      0.239500000000000
C      -4.812900000000000      1.382700000000000     -1.306200000000000
C       4.170600000000000     -1.630000000000000     -0.982200000000000
C      -3.361700000000000     -1.675000000000000      0.644700000000000
C       3.827700000000000     -0.052800000000000     -2.787700000000000
C      -3.172600000000000     -2.379000000000000     -1.671800000000000
C       5.185900000000000      1.571500000000000      1.653400000000000
C      -5.650700000000000      2.531400000000000     -0.735600000000000
C       5.026300000000000     -1.838200000000000      0.282700000000000
C      -4.491100000000000     -2.598400000000000      1.134500000000000
C       6.639700000000000      1.200200000000000      1.985700000000000
C       6.460900000000000     -1.325500000000000      0.109500000000000
C      -6.044400000000000      2.407900000000000      0.743100000000000
C      -5.926600000000000     -2.062700000000000      1.000800000000000
C       6.797100000000000     -0.252600000000000      2.468700000000000
C       7.269000000000000     -1.256100000000000      1.405800000000000
C      -6.767200000000000      1.099100000000000      1.095100000000000
C      -6.411600000000000     -1.195100000000000      2.173500000000000
C      -5.988300000000000      0.273000000000000      2.125400000000000
H       1.584300000000000      0.974600000000000     -2.007600000000000
H      -1.186800000000000     -0.442000000000000      0.399300000000000
H       1.177200000000000     -1.390400000000000     -0.098900000000000
H       1.623000000000000     -1.505600000000000     -1.811200000000000
H       1.050100000000000      2.457700000000000     -0.141400000000000
H       0.824500000000000      1.075300000000000      0.940500000000000
H      -0.668600000000000     -1.971600000000000     -1.505000000000000
H      -0.433500000000000     -0.586100000000000     -2.563900000000000
H      -1.244700000000000      1.977700000000000      0.194300000000000
H      -0.787300000000000      1.873400000000000     -1.526500000000000
H       3.069900000000000      0.084000000000000      0.492100000000000
H      -2.688900000000000      0.032300000000000     -2.219100000000000
H       2.949800000000000      2.520300000000000      0.429800000000000
H       3.501400000000000      2.552800000000000     -1.243600000000000
H      -2.907600000000000      2.135500000000000     -0.968300000000000
H      -3.504800000000000      1.253800000000000      0.434600000000000
H       5.275300000000000      3.201000000000000      0.257200000000000
H       5.704900000000000      1.672400000000000     -0.465200000000000
H      -5.380000000000000      0.450600000000000     -1.237900000000000
H      -4.672600000000000      1.563700000000000     -2.380000000000000
H       4.678900000000000     -2.172400000000000     -1.791200000000000
H       3.225500000000000     -2.148900000000000     -0.831700000000000
H      -3.339200000000000     -0.802000000000000      1.300000000000000
H      -2.410900000000000     -2.196800000000000      0.816900000000000
H       4.700300000000000     -0.431900000000000     -3.333200000000000
H       2.952700000000000     -0.580500000000000     -3.175000000000000
H       3.747300000000000      1.004800000000000     -3.061500000000000
H      -2.990500000000000     -2.050400000000000     -2.700800000000000
H      -4.047900000000000     -3.037000000000000     -1.728100000000000
H      -2.342500000000000     -3.006300000000000     -1.338200000000000
H       4.532100000000000      0.716700000000000      1.825400000000000
H       4.845900000000000      2.334800000000000      2.365900000000000
H      -6.569300000000000      2.609400000000000     -1.331200000000000
H      -5.112600000000000      3.476700000000000     -0.877400000000000
H       5.066800000000000     -2.913000000000000      0.501700000000000
H       4.542100000000000     -1.379500000000000      1.147300000000000
H      -4.296000000000000     -2.869500000000000      2.179500000000000
H      -4.431000000000000     -3.539600000000000      0.572700000000000
H       6.961300000000000      1.856600000000000      2.805100000000000
H       7.321200000000000      1.406500000000000      1.153000000000000
H       6.480200000000000     -0.346900000000000     -0.373100000000000
H       6.981400000000000     -2.001300000000000     -0.581600000000000
H      -6.715200000000000      3.245300000000000      0.975000000000000
H      -5.160900000000000      2.557000000000000      1.374100000000000
H      -6.583300000000000     -2.943200000000000      0.980000000000000
H      -6.075800000000000     -1.560700000000000      0.040800000000000
H       7.556900000000000     -0.258400000000000      3.261800000000000
H       5.877900000000000     -0.611000000000000      2.945600000000000
H       8.304600000000001     -1.006200000000000      1.141100000000000
H       7.305100000000000     -2.253900000000000      1.860600000000000
H      -6.988800000000000      0.515200000000000      0.197900000000000
H      -7.745200000000000      1.343800000000000      1.529800000000000
H      -7.507800000000000     -1.237900000000000      2.208400000000000
H      -6.060400000000000     -1.635700000000000      3.114500000000000
H      -4.915600000000000      0.345000000000000      1.953600000000000
H      -6.162400000000000      0.717200000000000      3.114000000000000
