87

N      -1.469900000000000     -0.610600000000000      0.679900000000000
N      -0.309900000000000      0.135900000000000      1.162900000000000
C       0.898200000000000     -0.533700000000000      0.640800000000000
C       0.405500000000000     -1.788500000000000     -0.091300000000000
C      -1.016000000000000     -1.382000000000000     -0.487400000000000
C       1.600200000000000      0.438700000000000     -0.311800000000000
C      -2.518600000000000      0.354400000000000      0.318400000000000
C       0.483300000000000     -3.019600000000000      0.819700000000000
C      -1.946500000000000     -2.544500000000000     -0.818100000000000
C       2.022400000000000      1.707600000000000      0.461800000000000
C       2.745200000000000     -0.272800000000000     -1.066600000000000
C      -3.294100000000000      0.757900000000000      1.586600000000000
C      -1.871600000000000      1.549100000000000     -0.411500000000000
C      -0.336400000000000      0.117000000000000      2.626700000000000
C       1.895100000000000     -3.598900000000000      0.853900000000000
C      -1.428700000000000     -3.339600000000000     -2.009900000000000
C       2.765100000000000      2.752900000000000     -0.380000000000000
C       3.967900000000000     -0.630300000000000     -0.211800000000000
C      -4.742400000000000      0.248400000000000      1.622300000000000
C      -2.822100000000000      2.680400000000000     -0.834000000000000
C       3.951600000000000      3.408300000000000      0.333200000000000
C       5.311400000000000     -0.389500000000000     -0.906500000000000
C      -5.642300000000000      0.665500000000000      0.451000000000000
C      -3.991700000000000      2.232100000000000     -1.714900000000000
C       1.978800000000000     -4.803000000000000      1.778300000000000
C      -2.342800000000000     -4.513100000000000     -2.323900000000000
C       5.093100000000000      2.494100000000000      0.800800000000000
C       5.634700000000000      1.045100000000000     -1.348500000000000
C      -5.733600000000000      2.178400000000000      0.230700000000000
C      -5.374500000000000      2.637000000000000     -1.188500000000000
C       6.088800000000000      2.023300000000000     -0.262300000000000
H       1.601000000000000     -0.801900000000000      1.439600000000000
H       0.928800000000000     -2.038200000000000     -1.011200000000000
H      -0.934400000000000     -0.758000000000000     -1.385700000000000
H       0.895500000000000      0.761400000000000     -1.089500000000000
H      -3.211200000000000     -0.137000000000000     -0.365800000000000
H       0.149600000000000     -2.783700000000000      1.836700000000000
H      -0.164400000000000     -3.826200000000000      0.467300000000000
H      -2.112800000000000     -3.194600000000000      0.048600000000000
H      -2.939900000000000     -2.159400000000000     -1.079900000000000
H       2.600300000000000      1.427400000000000      1.347000000000000
H       1.134900000000000      2.210000000000000      0.865600000000000
H       3.046700000000000      0.387400000000000     -1.884400000000000
H       2.437300000000000     -1.160300000000000     -1.620600000000000
H      -2.859500000000000      0.311800000000000      2.484500000000000
H      -3.261500000000000      1.837100000000000      1.760700000000000
H      -1.362500000000000      1.226100000000000     -1.325100000000000
H      -1.126700000000000      2.059200000000000      0.208700000000000
H      -1.010700000000000      0.880000000000000      3.023400000000000
H       0.644400000000000      0.395800000000000      3.032400000000000
H      -0.600500000000000     -0.860400000000000      3.046000000000000
H       2.216500000000000     -3.887000000000000     -0.153200000000000
H       2.596300000000000     -2.850200000000000      1.229600000000000
H      -1.365200000000000     -2.690400000000000     -2.891200000000000
H      -0.423600000000000     -3.732500000000000     -1.829500000000000
H       3.081900000000000      2.371300000000000     -1.347800000000000
H       2.049000000000000      3.548500000000000     -0.628100000000000
H       3.920500000000000     -1.700800000000000      0.010500000000000
H       3.957800000000000     -0.142400000000000      0.760800000000000
H      -5.203600000000000      0.592700000000000      2.556900000000000
H      -4.732300000000000     -0.848000000000000      1.673000000000000
H      -2.229400000000000      3.410400000000000     -1.402200000000000
H      -3.168600000000000      3.229900000000000      0.046200000000000
H       3.558700000000000      3.927800000000000      1.217400000000000
H       4.363700000000000      4.190700000000000     -0.316200000000000
H       5.341400000000000     -1.027300000000000     -1.800000000000000
H       6.114800000000000     -0.750600000000000     -0.252400000000000
H      -6.652000000000000      0.293500000000000      0.671800000000000
H      -5.348200000000000      0.140600000000000     -0.462400000000000
H      -3.964600000000000      1.157200000000000     -1.914300000000000
H      -3.871400000000000      2.699900000000000     -2.701300000000000
H       1.698800000000000     -4.533500000000000      2.801800000000000
H       3.000400000000000     -5.195200000000000      1.798300000000000
H       1.314400000000000     -5.604400000000000      1.439800000000000
H      -3.356000000000000     -4.171000000000000     -2.558200000000000
H      -1.964300000000000     -5.067600000000000     -3.188400000000000
H      -2.399800000000000     -5.203800000000000     -1.476500000000000
H       4.727200000000000      1.655000000000000      1.391800000000000
H       5.680400000000000      3.089700000000000      1.514700000000000
H       4.840200000000000      1.478200000000000     -1.955300000000000
H       6.483300000000000      0.958500000000000     -2.042700000000000
H      -5.140300000000000      2.730500000000000      0.965400000000000
H      -6.770500000000000      2.487500000000000      0.418800000000000
H      -5.457800000000000      3.730700000000000     -1.224900000000000
H      -6.130800000000000      2.251800000000000     -1.884100000000000
H       6.489400000000000      2.914300000000000     -0.763800000000000
H       6.943700000000000      1.572500000000000      0.259100000000000
