87

N       1.504300000000000      0.501600000000000      0.264600000000000
N      -1.566900000000000     -0.200100000000000      0.283500000000000
C       2.883200000000000      0.062400000000000      0.519900000000000
C       3.052000000000000     -1.421800000000000      0.107200000000000
C       3.905200000000000      0.975500000000000     -0.204300000000000
C       3.057000000000000     -1.595500000000000     -1.422200000000000
C       3.872400000000000      0.786600000000000     -1.729200000000000
C      -2.905200000000000      0.277400000000000     -0.106600000000000
C      -3.887800000000000     -0.074000000000000      1.029100000000000
C      -3.304600000000000     -0.346600000000000     -1.458800000000000
C       4.053100000000000     -0.676400000000000     -2.126100000000000
C       4.310800000000000     -2.036900000000000      0.733500000000000
C       3.729600000000000      2.454300000000000      0.156600000000000
C       0.621400000000000      0.065300000000000      1.333700000000000
C      -4.158200000000000     -1.586800000000000      1.096800000000000
C      -3.543000000000000     -1.858700000000000     -1.341100000000000
C      -4.556400000000000     -2.187800000000000     -0.248700000000000
C      -5.193700000000000      0.718100000000000      0.902300000000000
C      -2.282400000000000     -0.045400000000000     -2.557600000000000
C      -0.792800000000000      0.571100000000000      0.972800000000000
C       4.308600000000000     -1.826400000000000      2.243600000000000
C       4.401700000000000     -3.520100000000000      0.392700000000000
C       2.661500000000000      3.090000000000000     -0.725000000000000
C       5.056400000000000      3.192100000000000      0.021700000000000
C       0.636500000000000     -1.462500000000000      1.458800000000000
C       1.135900000000000      0.678500000000000      2.645700000000000
C      -6.110500000000000      0.424100000000000      2.085100000000000
C      -4.901400000000000      2.211400000000000      0.801600000000000
C      -2.022400000000000      1.455400000000000     -2.647400000000000
C      -2.764300000000000     -0.590900000000000     -3.898700000000000
C      -1.200000000000000      1.965900000000000      1.416500000000000
H       3.127300000000000      0.206500000000000      1.565400000000000
H       2.293700000000000     -2.123300000000000      0.388700000000000
H       4.900400000000000      0.665700000000000      0.143300000000000
H       3.234100000000000     -2.629400000000000     -1.731200000000000
H       2.054500000000000     -1.368100000000000     -1.808300000000000
H       4.657600000000000      1.377900000000000     -2.213300000000000
H       2.916300000000000      1.101700000000000     -2.161500000000000
H      -2.878600000000000      1.349900000000000     -0.259000000000000
H      -3.432100000000000      0.197600000000000      1.990700000000000
H      -4.260200000000000      0.106800000000000     -1.758900000000000
H       5.077600000000000     -0.993300000000000     -1.899300000000000
H       3.932900000000000     -0.775200000000000     -3.211400000000000
H       5.217000000000000     -1.561500000000000      0.341100000000000
H       3.420900000000000      2.542300000000000      1.205500000000000
H       1.177600000000000      0.151600000000000     -0.634000000000000
H      -4.894600000000000     -1.853300000000000      1.859300000000000
H      -3.232400000000000     -2.082000000000000      1.421700000000000
H      -2.599300000000000     -2.378100000000000     -1.132300000000000
H      -3.935600000000000     -2.273700000000000     -2.274700000000000
H      -4.639500000000000     -3.276400000000000     -0.148800000000000
H      -5.548400000000000     -1.825500000000000     -0.542300000000000
H      -5.736800000000000      0.433100000000000     -0.006300000000000
H      -1.326300000000000     -0.535900000000000     -2.332700000000000
H       4.520300000000000     -0.794100000000000      2.533600000000000
H       5.117100000000000     -2.413700000000000      2.697400000000000
H       3.386500000000000     -2.160400000000000      2.721900000000000
H       3.472000000000000     -4.053100000000000      0.619100000000000
H       5.198500000000000     -3.998200000000000      0.974500000000000
H       4.657700000000000     -3.689900000000000     -0.656800000000000
H       1.700800000000000      2.580300000000000     -0.761500000000000
H       2.443500000000000      4.093400000000000     -0.335900000000000
H       3.008100000000000      3.252300000000000     -1.751900000000000
H       5.818400000000000      2.753500000000000      0.675000000000000
H       4.941100000000000      4.242200000000000      0.312300000000000
H       5.438200000000000      3.174900000000000     -1.003800000000000
H       1.458600000000000     -1.874900000000000      2.040800000000000
H      -0.231200000000000     -1.744900000000000      2.077500000000000
H       0.427800000000000     -1.980200000000000      0.514700000000000
H       1.911600000000000      0.083200000000000      3.140200000000000
H       1.519500000000000      1.698400000000000      2.524700000000000
H       0.318800000000000      0.739600000000000      3.376400000000000
H      -6.960500000000000      1.116100000000000      2.096100000000000
H      -6.541900000000000     -0.579600000000000      2.033400000000000
H      -5.587100000000000      0.532500000000000      3.041000000000000
H      -5.822900000000000      2.789600000000000      0.940100000000000
H      -4.526200000000000      2.499900000000000     -0.184400000000000
H      -4.197100000000000      2.545300000000000      1.569500000000000
H      -1.434700000000000      1.824500000000000     -1.802500000000000
H      -1.438600000000000      1.691500000000000     -3.544600000000000
H      -2.955800000000000      2.025800000000000     -2.704300000000000
H      -2.116900000000000     -0.242400000000000     -4.711600000000000
H      -2.732800000000000     -1.683800000000000     -3.933000000000000
H      -3.784100000000000     -0.262500000000000     -4.126200000000000
H      -1.959300000000000      1.901900000000000      2.197700000000000
H      -0.353900000000000      2.525900000000000      1.816700000000000
H      -1.561900000000000      2.563300000000000      0.578100000000000
