87

N       2.124800000000000      0.844900000000000      0.184800000000000
N       0.419900000000000     -1.305400000000000     -0.715100000000000
C       0.769200000000000      1.102500000000000     -0.312900000000000
C      -0.134000000000000     -0.117500000000000     -0.056000000000000
C       2.693300000000000     -0.350200000000000     -0.451000000000000
C       4.081500000000000     -0.612500000000000      0.129500000000000
C      -1.555900000000000      0.150700000000000     -0.567200000000000
C      -2.152400000000000      1.406700000000000      0.088300000000000
C       0.190000000000000      2.348200000000000      0.367700000000000
C       1.780200000000000     -1.567800000000000     -0.240100000000000
C      -1.236600000000000      2.622700000000000     -0.109800000000000
C       4.727100000000000     -1.832600000000000     -0.539800000000000
C       4.973700000000000      0.626300000000000     -0.020000000000000
C       7.030000000000000     -0.846700000000000     -0.162000000000000
C       6.138200000000000     -2.085600000000000     -0.012100000000000
C       6.384600000000000      0.373000000000000      0.507800000000000
C      -3.543500000000000      1.688400000000000     -0.459200000000000
C       8.418900000000001     -1.108400000000000      0.417400000000000
C      -4.587400000000000      0.766700000000000      0.172000000000000
C       9.436100000000000     -0.099800000000000     -0.108300000000000
C      -6.006100000000000      1.000500000000000     -0.355400000000000
C      10.831799999999999     -0.384500000000000      0.449100000000000
C      -7.062000000000000      0.128400000000000      0.329500000000000
C      11.848900000000000      0.642800000000000     -0.047400000000000
C      -8.452800000000000      0.382700000000000     -0.258400000000000
C      -9.550500000000000     -0.472600000000000      0.381200000000000
C      13.230700000000001      0.383300000000000      0.531100000000000
C     -10.936199999999999     -0.236600000000000     -0.223800000000000
C     -12.004099999999999     -1.060600000000000      0.499400000000000
C     -13.394700000000000     -0.797800000000000     -0.078300000000000
C     -14.462899999999999     -1.589200000000000      0.659200000000000
H       0.822500000000000      1.303600000000000     -1.393000000000000
H      -0.197300000000000     -0.315400000000000      1.023700000000000
H       2.788400000000000     -0.160500000000000     -1.530000000000000
H       3.986100000000000     -0.828700000000000      1.203900000000000
H      -2.181800000000000     -0.723900000000000     -0.354900000000000
H      -1.543700000000000      0.273800000000000     -1.658900000000000
H      -2.223000000000000      1.229300000000000      1.170500000000000
H       0.187800000000000      2.219400000000000      1.458000000000000
H       0.815000000000000      3.223600000000000      0.152100000000000
H       2.693000000000000      1.663100000000000     -0.026300000000000
H       2.138800000000000     -2.433600000000000     -0.803900000000000
H       1.750000000000000     -1.863400000000000      0.816300000000000
H      -1.636000000000000      3.485900000000000      0.436100000000000
H      -1.213600000000000      2.901400000000000     -1.171300000000000
H       4.765300000000000     -1.692000000000000     -1.627400000000000
H       4.150300000000000     -2.743100000000000     -0.350700000000000
H       4.582300000000000      1.478800000000000      0.544500000000000
H       5.028700000000000      0.929400000000000     -1.073300000000000
H       0.444200000000000     -1.148300000000000     -1.723000000000000
H       7.126100000000000     -0.641300000000000     -1.237200000000000
H       6.083000000000000     -2.379700000000000      1.044000000000000
H       6.577300000000000     -2.931500000000000     -0.554700000000000
H       6.982500000000000      1.274000000000000      0.334700000000000
H       6.340700000000000      0.224800000000000      1.594500000000000
H      -3.561300000000000      1.589700000000000     -1.551400000000000
H      -3.829200000000000      2.724000000000000     -0.234600000000000
H       8.751899999999999     -2.114100000000000      0.130400000000000
H       8.390900000000000     -1.087600000000000      1.513800000000000
H      -4.586400000000000      0.912000000000000      1.259700000000000
H      -4.325400000000000     -0.282000000000000     -0.006000000000000
H       9.146800000000001      0.918500000000000      0.172000000000000
H       9.467400000000000     -0.137900000000000     -1.204100000000000
H      -6.019900000000000      0.808700000000000     -1.435500000000000
H      -6.269800000000000      2.056600000000000     -0.218100000000000
H      11.150300000000000     -1.391000000000000      0.151700000000000
H      10.799300000000001     -0.366500000000000      1.545400000000000
H      -7.072400000000000      0.338500000000000      1.405500000000000
H      -6.800000000000000     -0.929300000000000      0.207600000000000
H      11.904199999999999      0.612900000000000     -1.141800000000000
H      11.527200000000001      1.652400000000000      0.233800000000000
H      -8.708900000000000      1.442600000000000     -0.137100000000000
H      -8.430400000000001      0.184100000000000     -1.337200000000000
H      -9.287599999999999     -1.532600000000000      0.276700000000000
H      -9.582800000000001     -0.259400000000000      1.457000000000000
H      13.215700000000000      0.440300000000000      1.624200000000000
H      13.596500000000001     -0.607500000000000      0.243400000000000
H      13.942299999999999      1.128500000000000      0.161900000000000
H     -10.922000000000001     -0.498700000000000     -1.288500000000000
H     -11.186400000000001      0.829000000000000     -0.155700000000000
H     -11.765300000000000     -2.127800000000000      0.415800000000000
H     -11.998900000000001     -0.811000000000000      1.567500000000000
H     -13.413600000000001     -1.068400000000000     -1.140400000000000
H     -13.630500000000000      0.270700000000000     -0.011400000000000
H     -14.492400000000000     -1.315900000000000      1.718800000000000
H     -15.448900000000000     -1.387400000000000      0.229000000000000
H     -14.274200000000000     -2.665000000000000      0.586600000000000
