87

N      -4.133200000000000     -0.888900000000000      0.420900000000000
N       2.870900000000000      1.234200000000000      0.546000000000000
C      -2.401000000000000      1.178500000000000     -0.796000000000000
C      -2.370900000000000     -0.284800000000000     -1.257800000000000
C      -2.453000000000000      0.948400000000000      0.720400000000000
C      -1.185400000000000      1.999100000000000     -1.257400000000000
C      -1.310800000000000     -0.928800000000000     -0.343800000000000
C      -1.365000000000000     -0.116000000000000      0.960400000000000
C      -3.767000000000000     -0.901900000000000     -1.003500000000000
C      -3.853500000000000      0.396400000000000      1.078900000000000
C      -0.007500000000000      1.880400000000000     -0.249800000000000
C      -5.514900000000000     -1.308600000000000      0.625400000000000
C      -1.599100000000000      3.482300000000000     -1.336900000000000
C      -0.766000000000000      1.537100000000000     -2.663000000000000
C       1.246200000000000      2.706500000000000     -0.591200000000000
C       2.397800000000000      2.615700000000000      0.444500000000000
C      -5.764200000000000     -1.451000000000000      2.130600000000000
C      -6.442200000000000     -0.239600000000000      0.037500000000000
C      -5.747600000000000     -2.651700000000000     -0.076800000000000
C       1.867300000000000      3.050400000000000      1.821600000000000
C       3.586300000000000      3.507300000000000      0.059800000000000
C       3.683800000000000      0.861100000000000     -0.612100000000000
C       3.533900000000000      1.027700000000000      1.837000000000000
C       4.038500000000000     -1.665400000000000     -0.092900000000000
C       3.421000000000000     -0.596000000000000     -1.005900000000000
C       4.331600000000000     -0.267200000000000      2.012300000000000
C       3.687600000000000     -1.505400000000000      1.394500000000000
C       3.611500000000000     -3.055500000000000     -0.578500000000000
C       4.024100000000000     -3.235800000000000     -2.047100000000000
C       4.293800000000000     -4.131700000000000      0.279100000000000
C       2.086800000000000     -3.196700000000000     -0.456100000000000
H      -3.320100000000000      1.658300000000000     -1.158000000000000
H      -2.144100000000000     -0.448100000000000     -2.313600000000000
H      -2.291700000000000      1.857000000000000      1.309000000000000
H      -0.320900000000000     -0.900100000000000     -0.804800000000000
H      -1.519900000000000     -1.988900000000000     -0.158200000000000
H      -1.701200000000000     -0.788400000000000      1.763500000000000
H      -0.403600000000000      0.212300000000000      1.355600000000000
H      -4.467900000000000     -0.370700000000000     -1.652300000000000
H      -3.706600000000000     -1.935500000000000     -1.363800000000000
H      -3.868500000000000      0.277900000000000      2.168000000000000
H      -4.560500000000000      1.189600000000000      0.822300000000000
H      -0.322000000000000      2.211300000000000      0.739400000000000
H       0.395400000000000      0.874200000000000     -0.256100000000000
H      -0.823800000000000      4.110500000000000     -1.786500000000000
H      -1.832100000000000      3.885100000000000     -0.344900000000000
H      -2.492000000000000      3.607900000000000     -1.961200000000000
H      -0.070400000000000      2.252100000000000     -3.118400000000000
H      -1.624500000000000      1.481500000000000     -3.342600000000000
H      -0.246600000000000      0.573800000000000     -2.657800000000000
H       1.601600000000000      2.437400000000000     -1.591000000000000
H       0.968800000000000      3.765100000000000     -0.662300000000000
H      -5.799800000000000     -0.492100000000000      2.658500000000000
H      -6.734600000000000     -1.929300000000000      2.313000000000000
H      -5.004200000000000     -2.081300000000000      2.607600000000000
H      -6.464000000000000      0.696600000000000      0.603300000000000
H      -6.284400000000000     -0.005300000000000     -1.017100000000000
H      -7.476000000000000     -0.610100000000000      0.089300000000000
H      -5.775200000000000     -2.569300000000000     -1.168900000000000
H      -6.718000000000000     -3.071900000000000      0.215700000000000
H      -4.986900000000000     -3.391200000000000      0.200800000000000
H       1.172400000000000      2.334000000000000      2.274100000000000
H       1.307300000000000      3.990000000000000      1.720000000000000
H       2.656700000000000      3.276200000000000      2.548300000000000
H       3.900300000000000      3.398200000000000     -0.983500000000000
H       4.468800000000000      3.377800000000000      0.694100000000000
H       3.296400000000000      4.561600000000000      0.162200000000000
H       4.755300000000000      1.037500000000000     -0.452200000000000
H       3.417100000000000      1.425300000000000     -1.511900000000000
H       2.773900000000000      0.973800000000000      2.625900000000000
H       4.230200000000000      1.832300000000000      2.099600000000000
H       5.131000000000000     -1.584700000000000     -0.188900000000000
H       2.337500000000000     -0.707300000000000     -1.104400000000000
H       3.834400000000000     -0.700500000000000     -2.015800000000000
H       4.454400000000000     -0.437200000000000      3.090300000000000
H       5.346400000000000     -0.136800000000000      1.615700000000000
H       4.070900000000000     -2.344200000000000      1.980600000000000
H       2.607000000000000     -1.463000000000000      1.565400000000000
H       5.078100000000000     -2.979900000000000     -2.202800000000000
H       3.415100000000000     -2.643700000000000     -2.737800000000000
H       3.896200000000000     -4.279800000000000     -2.358200000000000
H       3.839800000000000     -4.244400000000000      1.268600000000000
H       5.364200000000000     -3.932400000000000      0.402400000000000
H       4.204300000000000     -5.116300000000000     -0.196600000000000
H       1.710000000000000     -3.051700000000000      0.559400000000000
H       1.528400000000000     -2.547400000000000     -1.134400000000000
H       1.796100000000000     -4.218700000000000     -0.734400000000000
