87

O      -7.341500000000000     -0.401600000000000     -0.731300000000000
O      -7.652800000000000     -2.577100000000000     -0.019200000000000
C       1.210100000000000      1.216000000000000      0.152600000000000
C       0.423900000000000      0.318800000000000      1.133100000000000
C      -1.076500000000000      0.631300000000000      1.156300000000000
C      -1.651800000000000      0.413100000000000     -0.281000000000000
C      -3.205100000000000      0.662200000000000     -0.335900000000000
C       2.638700000000000      0.683700000000000      0.422900000000000
C       0.678800000000000      0.944500000000000     -1.262100000000000
C      -3.866000000000000     -0.278400000000000      0.723200000000000
C      -0.839500000000000      1.183200000000000     -1.355600000000000
C       1.222700000000000      0.417500000000000      2.429200000000000
C      -1.814600000000000     -0.232000000000000      2.189300000000000
C       2.685700000000000      0.526000000000000      1.960800000000000
C      -3.328300000000000     -0.036600000000000      2.137700000000000
C      -3.773600000000000      0.274700000000000     -1.731100000000000
C       1.112200000000000      2.730900000000000      0.462900000000000
C       3.790700000000000      1.515200000000000     -0.122600000000000
C      -5.398700000000000     -0.229700000000000      0.691000000000000
C      -3.532900000000000      2.154300000000000     -0.072600000000000
C      -5.302700000000000      0.278000000000000     -1.790200000000000
C      -5.929600000000000     -0.582200000000000     -0.698100000000000
C       5.169800000000000      0.891900000000000      0.178400000000000
C       3.637900000000000      1.695400000000000     -1.638200000000000
C       5.374400000000000     -0.549600000000000     -0.315700000000000
C       6.720700000000000     -1.220700000000000      0.061800000000000
C      -8.087199999999999     -1.486900000000000     -0.365500000000000
C       7.954200000000000     -0.383000000000000     -0.403800000000000
C       6.757200000000000     -2.685200000000000     -0.441200000000000
C      -9.545600000000000     -1.152100000000000     -0.447300000000000
C       9.295400000000001     -0.910100000000000      0.113400000000000
C       8.013500000000001     -0.236100000000000     -1.929700000000000
C       5.660600000000000     -3.575400000000000      0.128400000000000
H       0.519300000000000     -0.728200000000000      0.798900000000000
H      -1.214800000000000      1.675100000000000      1.454800000000000
H      -1.502000000000000     -0.653200000000000     -0.515300000000000
H       2.684400000000000     -0.323500000000000     -0.013000000000000
H       0.888300000000000     -0.092600000000000     -1.553800000000000
H       1.135100000000000      1.582300000000000     -2.019300000000000
H      -3.589800000000000     -1.311700000000000      0.460300000000000
H      -1.161900000000000      0.874700000000000     -2.356400000000000
H      -1.036800000000000      2.257300000000000     -1.286300000000000
H       1.075000000000000     -0.458500000000000      3.069000000000000
H       0.940100000000000      1.303200000000000      3.009100000000000
H      -1.462600000000000      0.006000000000000      3.199800000000000
H      -1.585300000000000     -1.291700000000000      2.018100000000000
H       3.164800000000000      1.380900000000000      2.451400000000000
H       3.250400000000000     -0.370800000000000      2.238900000000000
H      -3.796100000000000     -0.738900000000000      2.838600000000000
H      -3.588900000000000      0.968700000000000      2.487700000000000
H      -3.417600000000000     -0.727300000000000     -2.004800000000000
H      -3.402000000000000      0.958600000000000     -2.503100000000000
H       1.545800000000000      2.986100000000000      1.435100000000000
H       1.632000000000000      3.332300000000000     -0.288700000000000
H       0.079900000000000      3.090600000000000      0.477700000000000
H       3.795400000000000      2.511700000000000      0.336600000000000
H      -5.808500000000000     -0.938500000000000      1.422100000000000
H      -5.775300000000000      0.750800000000000      1.005600000000000
H      -3.106800000000000      2.521900000000000      0.864000000000000
H      -3.150700000000000      2.792000000000000     -0.876400000000000
H      -4.608900000000000      2.341300000000000     -0.017500000000000
H      -5.632300000000000     -0.085200000000000     -2.772000000000000
H      -5.686600000000000      1.303500000000000     -1.725400000000000
H      -5.671800000000000     -1.625600000000000     -0.926500000000000
H       5.933800000000000      1.543700000000000     -0.260400000000000
H       5.344500000000000      0.915400000000000      1.261200000000000
H       4.590000000000000      2.007400000000000     -2.084900000000000
H       2.939900000000000      2.498200000000000     -1.882600000000000
H       3.338900000000000      0.771600000000000     -2.143100000000000
H       4.582600000000000     -1.162500000000000      0.122200000000000
H       5.230000000000000     -0.595500000000000     -1.400700000000000
H       6.761600000000000     -1.254600000000000      1.160000000000000
H       7.857700000000000      0.623400000000000      0.020200000000000
H       7.716800000000000     -3.138100000000000     -0.169800000000000
H       6.690600000000000     -2.714600000000000     -1.534600000000000
H      -9.806900000000001     -0.883200000000000     -1.473900000000000
H     -10.135400000000001     -2.025600000000000     -0.155000000000000
H      -9.776000000000000     -0.331600000000000      0.236700000000000
H       9.567299999999999     -1.862400000000000     -0.352100000000000
H       9.263400000000001     -1.054000000000000      1.198300000000000
H      10.098300000000000     -0.197100000000000     -0.104500000000000
H       8.155900000000001     -1.199900000000000     -2.427600000000000
H       8.855399999999999      0.404900000000000     -2.215200000000000
H       7.109300000000000      0.230800000000000     -2.329900000000000
H       4.677100000000000     -3.314600000000000     -0.272400000000000
H       5.851800000000000     -4.619900000000000     -0.139700000000000
H       5.624800000000000     -3.508400000000000      1.220100000000000
