87

O       2.566300000000000      2.100000000000000     -2.148000000000000
O       4.048600000000000      0.386100000000000     -2.593100000000000
C      -3.447300000000000     -3.542000000000000     -0.766500000000000
C      -3.750700000000000     -2.083000000000000     -0.419200000000000
C      -2.013200000000000     -3.973300000000000     -0.449000000000000
C      -5.204000000000000     -1.742000000000000     -0.765400000000000
C      -0.957500000000000     -3.223200000000000     -1.267600000000000
C      -5.556800000000000     -0.272000000000000     -0.528100000000000
C       0.370600000000000     -3.980600000000000     -1.365900000000000
C      -5.627900000000000      0.097700000000000      0.955100000000000
C       1.084700000000000     -4.234800000000000     -0.036300000000000
C      -6.136000000000000      1.524400000000000      1.196900000000000
C       1.726200000000000     -2.975300000000000      0.550900000000000
C      -5.309600000000000      2.640200000000000      0.548800000000000
C       2.506900000000000     -3.303800000000000      1.828300000000000
C      -3.860800000000000      2.678700000000000      1.038400000000000
C       3.466300000000000     -2.189400000000000      2.254000000000000
C      -3.074300000000000      3.804500000000000      0.364500000000000
C       2.762000000000000     -0.899800000000000      2.677600000000000
C      -1.664300000000000      3.983400000000000      0.934600000000000
C       3.733700000000000      0.179900000000000      3.173100000000000
C      -0.769500000000000      2.741200000000000      0.904300000000000
C       4.808600000000000      0.618800000000000      2.170300000000000
C      -0.510700000000000      2.203600000000000     -0.506200000000000
C       4.225600000000000      1.203700000000000      0.883500000000000
C       0.451300000000000      1.015200000000000     -0.458700000000000
C       5.319700000000000      1.595200000000000     -0.114000000000000
C       0.796400000000000      0.434400000000000     -1.833400000000000
C       4.759000000000000      2.325100000000000     -1.332700000000000
C       1.479100000000000      1.411700000000000     -2.789900000000000
C       3.777100000000000      1.475400000000000     -2.106200000000000
H      -3.648500000000000     -3.717800000000000     -1.830600000000000
H      -4.132600000000000     -4.191700000000000     -0.207700000000000
H      -3.565000000000000     -1.919200000000000      0.647800000000000
H      -3.081500000000000     -1.415900000000000     -0.974400000000000
H      -1.937900000000000     -5.048600000000000     -0.652900000000000
H      -1.817700000000000     -3.838600000000000      0.621300000000000
H      -5.375400000000000     -1.964500000000000     -1.826200000000000
H      -5.885900000000000     -2.384300000000000     -0.195100000000000
H      -0.794300000000000     -2.227100000000000     -0.842600000000000
H      -1.328200000000000     -3.071900000000000     -2.289000000000000
H      -4.826600000000000      0.359100000000000     -1.046900000000000
H      -6.532800000000000     -0.074800000000000     -0.988600000000000
H       1.041100000000000     -3.433200000000000     -2.040000000000000
H       0.181200000000000     -4.949500000000000     -1.845400000000000
H      -6.309200000000000     -0.595100000000000      1.464800000000000
H      -4.649600000000000     -0.032100000000000      1.428900000000000
H       1.875200000000000     -4.973800000000000     -0.220500000000000
H       0.403600000000000     -4.687900000000000      0.692200000000000
H      -7.167100000000000      1.600000000000000      0.829500000000000
H      -6.181700000000000      1.697700000000000      2.279300000000000
H       0.955000000000000     -2.229800000000000      0.771800000000000
H       2.402500000000000     -2.536000000000000     -0.192300000000000
H      -5.334100000000000      2.541200000000000     -0.542300000000000
H      -5.790400000000000      3.599200000000000      0.779800000000000
H       3.103700000000000     -4.210000000000000      1.665900000000000
H       1.807000000000000     -3.529300000000000      2.641800000000000
H      -3.846200000000000      2.814600000000000      2.126300000000000
H      -3.374800000000000      1.722800000000000      0.820200000000000
H       4.157900000000000     -1.992400000000000      1.427300000000000
H       4.071600000000000     -2.556100000000000      3.092200000000000
H      -3.020300000000000      3.622200000000000     -0.715200000000000
H      -3.614300000000000      4.751300000000000      0.490600000000000
H       2.058800000000000     -1.126300000000000      3.488700000000000
H       2.160000000000000     -0.503500000000000      1.853900000000000
H      -1.168300000000000      4.795000000000000      0.387900000000000
H      -1.746900000000000      4.320600000000000      1.975500000000000
H       4.234800000000000     -0.184100000000000      4.078800000000000
H       3.150000000000000      1.058200000000000      3.475700000000000
H       0.190700000000000      3.007600000000000      1.364900000000000
H      -1.198100000000000      1.951900000000000      1.532500000000000
H       5.470100000000000     -0.222500000000000      1.934900000000000
H       5.438800000000000      1.376400000000000      2.652900000000000
H      -1.449100000000000      1.886400000000000     -0.973900000000000
H      -0.092200000000000      3.008400000000000     -1.120300000000000
H       3.613500000000000      2.079900000000000      1.128200000000000
H       3.570600000000000      0.466300000000000      0.409500000000000
H       1.371000000000000      1.314400000000000      0.053900000000000
H       0.005300000000000      0.217900000000000      0.149000000000000
H       5.857100000000000      0.694200000000000     -0.434200000000000
H       6.050900000000000      2.247800000000000      0.377900000000000
H       1.466000000000000     -0.418700000000000     -1.668200000000000
H      -0.107800000000000      0.037400000000000     -2.309100000000000
H       5.566800000000000      2.605200000000000     -2.017800000000000
H       4.276500000000000      3.257600000000000     -1.016400000000000
H       1.830600000000000      0.893800000000000     -3.690000000000000
H       0.769900000000000      2.175300000000000     -3.125400000000000
