87

N      -4.441500000000000     -0.712700000000000     -1.139000000000000
N      -4.105800000000000     -1.905000000000000      0.958500000000000
C       0.716500000000000     -0.550200000000000     -0.492800000000000
C       2.030700000000000      0.197400000000000     -0.276600000000000
C      -2.222200000000000     -0.817400000000000     -0.138200000000000
C       0.105600000000000     -0.971300000000000      0.849900000000000
C      -0.269600000000000      0.309000000000000     -1.294200000000000
C      -1.236400000000000     -1.677000000000000      0.663200000000000
C      -1.611400000000000     -0.396900000000000     -1.480800000000000
C       3.031600000000000     -0.676700000000000      0.489800000000000
C       2.620800000000000      0.653700000000000     -1.616900000000000
C       4.963000000000000      0.486200000000000     -0.666200000000000
C       4.373200000000000      0.030100000000000      0.674500000000000
C       3.962200000000000      1.360600000000000     -1.432000000000000
C      -3.538100000000000     -1.564500000000000     -0.354000000000000
C       6.278000000000000      1.233000000000000     -0.451000000000000
C      -6.382200000000000     -1.796200000000000     -0.047000000000000
C      -5.720000000000000     -1.388400000000000     -1.372700000000000
C      -5.385200000000000     -2.602800000000000      0.801800000000000
C       7.432100000000000      0.265000000000000     -0.187700000000000
C      -6.919600000000000     -0.577200000000000      0.711700000000000
C       8.777900000000001      0.964800000000000      0.022600000000000
C      -8.234000000000000     -0.050200000000000      0.144800000000000
C       9.918699999999999      0.001900000000000      0.358900000000000
C      -8.789400000000001      1.153800000000000      0.908800000000000
C      11.232100000000001      0.755800000000000      0.581400000000000
C     -10.093299999999999      1.653700000000000      0.282500000000000
C      12.365300000000000     -0.199500000000000      0.955000000000000
C     -10.630300000000000      2.879800000000000      1.020600000000000
C      13.679200000000000      0.541600000000000      1.144000000000000
C     -11.908099999999999      3.399600000000000      0.381200000000000
H       0.917200000000000     -1.461900000000000     -1.073600000000000
H       1.834200000000000      1.095000000000000      0.327200000000000
H      -2.415400000000000      0.099300000000000      0.440000000000000
H      -0.030200000000000     -0.095300000000000      1.496600000000000
H       0.755400000000000     -1.671900000000000      1.382800000000000
H       0.108800000000000      0.521000000000000     -2.298700000000000
H      -0.429100000000000      1.272000000000000     -0.792900000000000
H      -1.071300000000000     -2.633800000000000      0.150800000000000
H      -1.634800000000000     -1.912900000000000      1.656600000000000
H      -2.255200000000000      0.306300000000000     -2.018800000000000
H      -1.474900000000000     -1.274100000000000     -2.126200000000000
H       2.665800000000000     -0.919200000000000      1.491900000000000
H       3.189500000000000     -1.625300000000000     -0.038600000000000
H       2.749800000000000     -0.204800000000000     -2.288000000000000
H       1.964400000000000      1.368800000000000     -2.121700000000000
H       5.154400000000000     -0.404000000000000     -1.281300000000000
H       4.234900000000000      0.894600000000000      1.336700000000000
H       5.058500000000000     -0.654200000000000      1.186200000000000
H       4.368700000000000      1.621100000000000     -2.416800000000000
H       3.804100000000000      2.304200000000000     -0.893800000000000
H      -3.330900000000000     -2.489900000000000     -0.909400000000000
H       6.524300000000000      1.814800000000000     -1.348400000000000
H       6.188100000000000      1.951200000000000      0.373100000000000
H      -4.037000000000000     -0.514300000000000     -2.051900000000000
H      -4.253700000000000     -1.046700000000000      1.488800000000000
H      -7.226300000000000     -2.460600000000000     -0.274300000000000
H      -5.553700000000000     -2.280700000000000     -1.990100000000000
H      -6.372900000000000     -0.729600000000000     -1.953300000000000
H      -5.803800000000000     -2.814200000000000      1.792200000000000
H      -5.204500000000000     -3.578100000000000      0.332200000000000
H       7.216200000000000     -0.338700000000000      0.700900000000000
H       7.524700000000000     -0.433100000000000     -1.029100000000000
H      -6.180300000000000      0.232200000000000      0.737000000000000
H      -7.100500000000000     -0.857100000000000      1.757800000000000
H       9.033400000000000      1.529900000000000     -0.882300000000000
H       8.675200000000000      1.696400000000000      0.833900000000000
H      -8.096299999999999      0.236000000000000     -0.904000000000000
H      -8.980399999999999     -0.854500000000000      0.155900000000000
H      10.040300000000000     -0.721900000000000     -0.455800000000000
H       9.662900000000000     -0.566000000000000      1.261500000000000
H      -8.964200000000000      0.876700000000000      1.955300000000000
H      -8.046500000000000      1.960500000000000      0.906700000000000
H      11.101500000000000      1.497400000000000      1.379000000000000
H      11.497600000000000      1.305000000000000     -0.330100000000000
H     -10.842800000000000      0.853200000000000      0.302900000000000
H      -9.920500000000001      1.907700000000000     -0.770500000000000
H      12.489599999999999     -0.954800000000000      0.170200000000000
H      12.114599999999999     -0.731100000000000      1.880200000000000
H     -10.828200000000001      2.626200000000000      2.068500000000000
H      -9.877800000000001      3.677000000000000      1.016100000000000
H      13.598699999999999      1.284900000000000      1.943600000000000
H      14.475199999999999     -0.160300000000000      1.411500000000000
H      13.975199999999999      1.056500000000000      0.224400000000000
H     -11.734800000000000      3.694200000000000     -0.658800000000000
H     -12.692700000000000      2.636400000000000      0.396300000000000
H     -12.275300000000000      4.275200000000000      0.925500000000000
