87

N       3.683500000000000      1.222100000000000     -0.913200000000000
N      -3.466800000000000     -0.983800000000000      1.250300000000000
C       1.421000000000000      0.310900000000000     -0.197600000000000
C      -1.526900000000000      0.077700000000000      0.099900000000000
C       0.750000000000000     -1.033300000000000      0.111700000000000
C       0.462600000000000      1.235500000000000     -0.958800000000000
C      -0.568400000000000     -0.847000000000000      0.860700000000000
C      -0.855800000000000      1.422000000000000     -0.210000000000000
C       2.716800000000000      0.099700000000000     -0.993100000000000
C      -2.819500000000000      0.288900000000000      0.895000000000000
C       3.382700000000000     -1.238400000000000     -0.584100000000000
C      -3.762500000000000      1.273900000000000      0.164600000000000
C       4.558200000000000     -1.605700000000000     -1.498000000000000
C       3.926600000000000      1.721000000000000      0.450200000000000
C      -4.920800000000000      1.774700000000000      1.041000000000000
C      -3.733100000000000     -1.893100000000000      0.135500000000000
C       3.308900000000000      2.306800000000000     -1.824200000000000
C       5.367900000000000     -2.816600000000000     -1.023500000000000
C       5.232500000000000      2.519700000000000      0.608200000000000
C      -5.989200000000000      2.553500000000000      0.259300000000000
C      -4.940000000000000     -2.809300000000000      0.399200000000000
C       6.090500000000000     -2.658200000000000      0.321500000000000
C       6.533600000000000      1.798200000000000      0.218100000000000
C      -6.826700000000000      1.698100000000000     -0.701200000000000
C       7.015100000000000     -1.434100000000000      0.399200000000000
C      -6.296800000000000     -2.091200000000000      0.473700000000000
C       7.166100000000000      0.945700000000000      1.330000000000000
C       6.581200000000000     -0.456600000000000      1.497900000000000
C      -7.763200000000000      0.711600000000000      0.012600000000000
C      -6.743600000000000     -1.495800000000000     -0.866900000000000
C      -7.983900000000000     -0.597000000000000     -0.758200000000000
H       1.627900000000000      0.764000000000000      0.778600000000000
H      -1.758800000000000     -0.392600000000000     -0.865600000000000
H       1.367400000000000     -1.650600000000000      0.773300000000000
H       0.552700000000000     -1.591500000000000     -0.812300000000000
H       0.256700000000000      0.828700000000000     -1.957000000000000
H       0.874600000000000      2.232700000000000     -1.095100000000000
H      -1.002200000000000     -1.837100000000000      1.030300000000000
H      -0.358200000000000     -0.425300000000000      1.852700000000000
H      -0.677700000000000      1.983800000000000      0.715400000000000
H      -1.470300000000000      2.045400000000000     -0.864100000000000
H       2.449400000000000     -0.050800000000000     -2.049300000000000
H      -2.546900000000000      0.761300000000000      1.848900000000000
H       2.703000000000000     -2.087800000000000     -0.699800000000000
H       3.691100000000000     -1.209300000000000      0.463800000000000
H      -4.136300000000000      0.814700000000000     -0.754400000000000
H      -3.246500000000000      2.185200000000000     -0.142300000000000
H      -4.309900000000000     -0.805700000000000      1.788500000000000
H       5.226900000000000     -0.751300000000000     -1.631400000000000
H       4.164200000000000     -1.829800000000000     -2.498100000000000
H       3.952400000000000      0.897800000000000      1.166900000000000
H       3.102100000000000      2.369100000000000      0.775900000000000
H      -4.505700000000000      2.438800000000000      1.810200000000000
H      -5.392100000000000      0.951200000000000      1.580700000000000
H      -2.858900000000000     -2.534900000000000     -0.016800000000000
H      -3.894300000000000     -1.361700000000000     -0.805600000000000
H       4.218000000000000      2.843100000000000     -2.121100000000000
H       2.648900000000000      3.053400000000000     -1.376000000000000
H       2.867800000000000      1.944600000000000     -2.759200000000000
H       6.117000000000000     -3.045800000000000     -1.792200000000000
H       4.709400000000000     -3.692100000000000     -0.966900000000000
H       5.305300000000000      2.874000000000000      1.644000000000000
H       5.155100000000000      3.426400000000000     -0.005700000000000
H      -5.502300000000000      3.353700000000000     -0.311300000000000
H      -6.661400000000000      3.044300000000000      0.973900000000000
H      -4.778300000000000     -3.352300000000000      1.339200000000000
H      -4.983100000000000     -3.568700000000000     -0.391500000000000
H       5.357800000000000     -2.656200000000000      1.136500000000000
H       6.698000000000000     -3.559500000000000      0.475700000000000
H       7.263500000000000      2.584900000000000     -0.016600000000000
H       6.409300000000000      1.226100000000000     -0.705600000000000
H      -6.170000000000000      1.194200000000000     -1.413900000000000
H      -7.446300000000000      2.371900000000000     -1.307400000000000
H       7.096300000000000     -0.936700000000000     -0.570800000000000
H       8.031499999999999     -1.775800000000000      0.635000000000000
H      -6.263100000000000     -1.326700000000000      1.252900000000000
H      -7.053600000000000     -2.817300000000000      0.796800000000000
H       7.083700000000000      1.481800000000000      2.283300000000000
H       8.240500000000001      0.850100000000000      1.127000000000000
H       5.496000000000000     -0.401000000000000      1.565100000000000
H       6.919300000000000     -0.860900000000000      2.460900000000000
H      -8.737299999999999      1.202600000000000      0.137500000000000
H      -7.424200000000000      0.489300000000000      1.027000000000000
H      -6.976900000000000     -2.323000000000000     -1.549300000000000
H      -5.931300000000000     -0.939000000000000     -1.338100000000000
H      -8.790200000000000     -1.160700000000000     -0.273200000000000
H      -8.335000000000001     -0.357400000000000     -1.769500000000000
