87

O      -4.566900000000000     -1.917900000000000     -1.068200000000000
N      -5.455100000000000      0.110400000000000     -0.375200000000000
C      -1.897700000000000      0.292200000000000     -0.562700000000000
C      -2.731100000000000      0.950900000000000     -1.666900000000000
C      -3.273400000000000      2.323500000000000     -1.242600000000000
C      -0.882900000000000      1.294700000000000      0.034500000000000
C      -1.265200000000000     -1.011100000000000     -1.098200000000000
C      -3.813800000000000      0.019100000000000     -2.227200000000000
C      -4.349500000000000      2.319500000000000     -0.158100000000000
C       0.221700000000000      1.749800000000000     -0.926700000000000
C      -0.512200000000000     -1.817300000000000     -0.034600000000000
C      -5.602800000000000      1.552900000000000     -0.563400000000000
C      -4.646600000000000     -0.691300000000000     -1.174700000000000
C       1.350000000000000      2.475100000000000     -0.186900000000000
C       0.366300000000000     -2.898400000000000     -0.670100000000000
C       2.445000000000000      2.917100000000000     -1.162100000000000
C       1.072000000000000     -3.735600000000000      0.400100000000000
C      -6.215000000000000     -0.483300000000000      0.717000000000000
C       3.705800000000000      3.451000000000000     -0.474500000000000
C       2.226400000000000     -4.584400000000000     -0.144200000000000
C       4.471500000000000      2.359600000000000      0.281400000000000
C       3.408200000000000     -3.798800000000000     -0.730900000000000
C       5.848800000000000      2.844400000000000      0.740700000000000
C       4.036400000000000     -2.808600000000000      0.253400000000000
C       6.588300000000000      1.835800000000000      1.629100000000000
C       5.195600000000000     -2.036800000000000     -0.381900000000000
C      -5.363200000000000     -0.526400000000000      1.943300000000000
C       7.505400000000000      0.851100000000000      0.892600000000000
C       5.803100000000000     -1.042100000000000      0.611800000000000
C       6.841800000000000     -0.143100000000000     -0.062100000000000
C      -5.677300000000000      0.097000000000000      3.088300000000000
C      -4.833500000000000      0.051200000000000      4.318900000000000
H      -2.557200000000000      0.010600000000000      0.268100000000000
H      -2.060600000000000      1.157100000000000     -2.514000000000000
H      -3.719100000000000      2.783200000000000     -2.137300000000000
H      -2.478000000000000      3.023700000000000     -0.972800000000000
H      -1.375300000000000      2.162300000000000      0.484800000000000
H      -0.406000000000000      0.814200000000000      0.897600000000000
H      -2.022100000000000     -1.686700000000000     -1.504900000000000
H      -0.597400000000000     -0.783000000000000     -1.936800000000000
H      -3.360000000000000     -0.746000000000000     -2.869100000000000
H      -4.485500000000000      0.568100000000000     -2.897900000000000
H      -3.943500000000000      1.941800000000000      0.786400000000000
H      -4.634500000000000      3.364000000000000      0.021100000000000
H      -0.196800000000000      2.410700000000000     -1.693700000000000
H       0.658000000000000      0.890000000000000     -1.444200000000000
H      -1.232500000000000     -2.270500000000000      0.657000000000000
H       0.140300000000000     -1.170500000000000      0.558400000000000
H      -6.446300000000000      1.907100000000000      0.040000000000000
H      -5.865200000000000      1.749200000000000     -1.608600000000000
H       0.953500000000000      3.349200000000000      0.342900000000000
H       1.762200000000000      1.797300000000000      0.567900000000000
H      -0.238300000000000     -3.554500000000000     -1.307400000000000
H       1.097300000000000     -2.404500000000000     -1.318200000000000
H       2.040900000000000      3.702700000000000     -1.812600000000000
H       2.722900000000000      2.082000000000000     -1.817200000000000
H       0.333900000000000     -4.405700000000000      0.859200000000000
H       1.435500000000000     -3.094700000000000      1.210800000000000
H      -6.483400000000000     -1.512000000000000      0.449800000000000
H      -7.153800000000000      0.061400000000000      0.864400000000000
H       3.443700000000000      4.266900000000000      0.209400000000000
H       4.358400000000000      3.877800000000000     -1.246200000000000
H       1.840600000000000     -5.264000000000000     -0.914000000000000
H       2.599500000000000     -5.218400000000000      0.669900000000000
H       3.893600000000000      2.043500000000000      1.156800000000000
H       4.576300000000000      1.488000000000000     -0.369200000000000
H       4.172700000000000     -4.518800000000000     -1.049200000000000
H       3.093100000000000     -3.271300000000000     -1.638000000000000
H       5.704700000000000      3.762900000000000      1.324300000000000
H       6.466200000000000      3.116600000000000     -0.123400000000000
H       4.390100000000000     -3.346900000000000      1.140800000000000
H       3.285700000000000     -2.084700000000000      0.588300000000000
H       5.886300000000000      1.301500000000000      2.278800000000000
H       7.234100000000000      2.412800000000000      2.304900000000000
H       4.829600000000000     -1.498000000000000     -1.264500000000000
H       5.968300000000000     -2.735200000000000     -0.724400000000000
H      -4.448400000000000     -1.112400000000000      1.892600000000000
H       8.254500000000000      1.421900000000000      0.329500000000000
H       8.064399999999999      0.282600000000000      1.647200000000000
H       5.001600000000000     -0.433900000000000      1.043200000000000
H       6.269500000000000     -1.590300000000000      1.439200000000000
H       7.628300000000000     -0.775700000000000     -0.493300000000000
H       6.394200000000000      0.393500000000000     -0.905200000000000
H      -6.593300000000000      0.678800000000000      3.148100000000000
H      -5.405000000000000     -0.379300000000000      5.146800000000000
H      -3.928900000000000     -0.549200000000000      4.179900000000000
H      -4.530200000000000      1.064300000000000      4.600000000000000
