88

N       6.534700000000000      0.333100000000000      0.364600000000000
N      11.061199999999999      1.424000000000000     -1.242700000000000
C      -2.131800000000000     -1.180300000000000     -0.054100000000000
C      -1.504100000000000     -0.124200000000000      0.881700000000000
C      -0.043500000000000     -0.429600000000000      1.232100000000000
C       0.787100000000000     -0.470900000000000     -0.092100000000000
C       2.316200000000000     -0.727100000000000      0.181200000000000
C      -3.566900000000000     -0.606100000000000     -0.145700000000000
C       2.807200000000000      0.386700000000000      1.161300000000000
C      -1.346700000000000     -1.165400000000000     -1.373200000000000
C       0.154900000000000     -1.419100000000000     -1.145200000000000
C      -2.525100000000000      0.010600000000000      2.007300000000000
C       0.526300000000000      0.602300000000000      2.215700000000000
C      -3.883500000000000     -0.179400000000000      1.307000000000000
C       2.017400000000000      0.399700000000000      2.474900000000000
C       3.137200000000000     -0.594400000000000     -1.132800000000000
C      -2.142600000000000     -2.616000000000000      0.528500000000000
C       4.321600000000000      0.335500000000000      1.418500000000000
C      -4.630100000000000     -1.518900000000000     -0.739600000000000
C       2.540900000000000     -2.149200000000000      0.756300000000000
C       4.654400000000000     -0.609600000000000     -0.914200000000000
C       5.100000000000000      0.445000000000000      0.102400000000000
C      -6.065100000000000     -1.094100000000000     -0.359300000000000
C      -4.494800000000000     -1.551900000000000     -2.267000000000000
C      -6.403400000000000      0.341000000000000     -0.775100000000000
C       7.302700000000000      0.961700000000000     -0.698700000000000
C      -7.805700000000000      0.789300000000000     -0.342000000000000
C       8.809100000000001      0.880000000000000     -0.442300000000000
C      -8.235200000000001      2.199700000000000     -0.788500000000000
C       9.638400000000001      1.551300000000000     -1.538600000000000
C      -9.664500000000000      2.537500000000000     -0.363900000000000
C      -7.266200000000000      3.238800000000000     -0.216400000000000
H      -1.502800000000000      0.846600000000000      0.357600000000000
H       0.004600000000000     -1.403500000000000      1.728900000000000
H       0.717100000000000      0.536800000000000     -0.532400000000000
H      -3.522700000000000      0.320000000000000     -0.738900000000000
H       2.614500000000000      1.356900000000000      0.676400000000000
H      -1.468700000000000     -0.198900000000000     -1.878500000000000
H      -1.706700000000000     -1.931500000000000     -2.064000000000000
H       0.661400000000000     -1.296400000000000     -2.109000000000000
H       0.298400000000000     -2.463700000000000     -0.852100000000000
H      -2.378800000000000     -0.757200000000000      2.775400000000000
H      -2.464400000000000      0.987000000000000      2.498900000000000
H       0.366200000000000      1.615200000000000      1.823900000000000
H      -0.008500000000000      0.547400000000000      3.171200000000000
H      -4.454500000000000      0.752200000000000      1.350100000000000
H      -4.442400000000000     -0.942000000000000      1.859700000000000
H       2.375000000000000      1.214800000000000      3.115900000000000
H       2.178200000000000     -0.527700000000000      3.036100000000000
H       2.886500000000000     -1.404900000000000     -1.827100000000000
H       2.868600000000000      0.342900000000000     -1.638000000000000
H      -2.503100000000000     -3.337600000000000     -0.213300000000000
H      -1.146900000000000     -2.958700000000000      0.822300000000000
H      -2.780400000000000     -2.706400000000000      1.413300000000000
H       4.590700000000000     -0.581900000000000      1.955700000000000
H       4.602900000000000      1.168500000000000      2.076700000000000
H      -4.529300000000000     -2.544200000000000     -0.370000000000000
H       3.582300000000000     -2.325100000000000      1.039300000000000
H       2.288100000000000     -2.919000000000000      0.019700000000000
H       1.941100000000000     -2.344100000000000      1.648400000000000
H       5.132100000000000     -0.439400000000000     -1.885900000000000
H       4.971500000000000     -1.608600000000000     -0.590600000000000
H       4.876200000000000      1.440600000000000     -0.306900000000000
H      -6.778200000000000     -1.776900000000000     -0.840500000000000
H      -6.235600000000000     -1.217300000000000      0.715600000000000
H      -5.398000000000000     -1.964600000000000     -2.731000000000000
H      -3.678100000000000     -2.206000000000000     -2.577100000000000
H      -4.324900000000000     -0.559300000000000     -2.696300000000000
H       6.761700000000000      0.792000000000000      1.246700000000000
H      -6.345100000000000      0.427000000000000     -1.866600000000000
H      -5.672500000000000      1.042100000000000     -0.372400000000000
H       7.100900000000000      0.481600000000000     -1.662300000000000
H       7.024400000000000      2.019100000000000     -0.792200000000000
H      -8.533700000000000      0.068400000000000     -0.736600000000000
H      -7.873300000000000      0.721700000000000      0.751900000000000
H       9.036899999999999      1.350400000000000      0.523700000000000
H       9.102800000000000     -0.174900000000000     -0.357300000000000
H      -8.187600000000000      2.250100000000000     -1.883500000000000
H       9.430400000000001      1.083100000000000     -2.506400000000000
H       9.375000000000000      2.611700000000000     -1.615900000000000
H      -9.768300000000000      2.522000000000000      0.726400000000000
H      -9.953900000000001      3.531900000000000     -0.719500000000000
H     -10.371900000000000      1.813300000000000     -0.781300000000000
H      -7.182100000000000      3.151800000000000      0.872200000000000
H      -7.609900000000000      4.253600000000000     -0.445700000000000
H      -6.266500000000000      3.139600000000000     -0.649700000000000
H      11.269800000000000      1.881800000000000     -0.356200000000000
H      11.599100000000000      1.918500000000000     -1.953000000000000
