88

O      -2.721700000000000      4.738700000000000     -1.127700000000000
O      -3.544700000000000      2.194700000000000     -1.669400000000000
C      -2.596900000000000     -4.646300000000000      0.671600000000000
C      -3.432600000000000     -3.370700000000000      0.836100000000000
C       1.933200000000000      0.446800000000000      2.808700000000000
C      -1.385000000000000     -4.552100000000000     -0.265200000000000
C       0.588400000000000      1.176400000000000      2.780900000000000
C      -4.139700000000000     -2.933200000000000     -0.450400000000000
C       3.139500000000000      1.384000000000000      2.882200000000000
C       0.410100000000000      2.065800000000000      1.548200000000000
C      -0.073400000000000     -4.111900000000000      0.398400000000000
C      -5.053300000000000     -1.717300000000000     -0.258300000000000
C       4.460200000000000      0.638400000000000      3.106200000000000
C      -1.055400000000000      2.468200000000000      1.368100000000000
C      -4.295700000000000     -0.433800000000000      0.097800000000000
C      -0.023100000000000     -2.689100000000000      0.957100000000000
C       4.830700000000000     -0.388300000000000      2.030900000000000
C      -1.247000000000000      3.345300000000000      0.131300000000000
C      -5.237200000000000      0.775800000000000      0.110100000000000
C      -0.343500000000000     -1.580500000000000     -0.046900000000000
C       5.095800000000000      0.237500000000000      0.659200000000000
C      -2.696700000000000      3.782200000000000     -0.074800000000000
C      -4.535300000000000      2.066500000000000      0.531100000000000
C       0.726300000000000     -1.404300000000000     -1.125900000000000
C       5.468200000000000     -0.832200000000000     -0.371000000000000
C      -3.581000000000000      2.623200000000000     -0.516000000000000
C       0.321700000000000     -0.298700000000000     -2.106600000000000
C       6.036000000000000     -0.255400000000000     -1.672200000000000
C       1.360000000000000     -0.053600000000000     -3.203700000000000
C       5.116200000000000      0.703600000000000     -2.433000000000000
C       2.626900000000000      0.561600000000000     -2.683800000000000
C       3.848900000000000      0.058700000000000     -2.912900000000000
H      -3.261400000000000     -5.432100000000000      0.288900000000000
H      -2.267300000000000     -4.985700000000000      1.661200000000000
H      -2.813000000000000     -2.561100000000000      1.224800000000000
H      -4.194700000000000     -3.565000000000000      1.601600000000000
H       2.006100000000000     -0.186700000000000      1.917700000000000
H       1.942100000000000     -0.223500000000000      3.676900000000000
H      -1.597700000000000     -3.938100000000000     -1.144500000000000
H      -1.205300000000000     -5.563000000000000     -0.656000000000000
H      -0.203700000000000      0.417600000000000      2.804100000000000
H       0.471200000000000      1.779300000000000      3.689400000000000
H      -3.411700000000000     -2.705200000000000     -1.235500000000000
H      -4.750300000000000     -3.766000000000000     -0.820600000000000
H       2.999000000000000      2.085800000000000      3.713600000000000
H       3.206400000000000      1.990300000000000      1.972700000000000
H       1.029400000000000      2.964900000000000      1.647000000000000
H       0.753600000000000      1.535300000000000      0.652900000000000
H       0.735800000000000     -4.234900000000000     -0.331800000000000
H       0.158300000000000     -4.808400000000000      1.214500000000000
H      -5.798500000000000     -1.934400000000000      0.516600000000000
H      -5.606400000000000     -1.558600000000000     -1.192400000000000
H       4.411700000000000      0.122100000000000      4.073200000000000
H       5.268100000000000      1.375600000000000      3.191700000000000
H      -1.662100000000000      1.560600000000000      1.274900000000000
H      -1.403100000000000      3.004200000000000      2.259200000000000
H      -3.489200000000000     -0.273000000000000     -0.626300000000000
H      -3.830000000000000     -0.535900000000000      1.084300000000000
H       0.977700000000000     -2.515600000000000      1.372300000000000
H      -0.708900000000000     -2.612400000000000      1.807600000000000
H       4.052900000000000     -1.155800000000000      1.950700000000000
H       5.738700000000000     -0.908700000000000      2.361600000000000
H      -0.613800000000000      4.238100000000000      0.214900000000000
H      -0.889100000000000      2.810600000000000     -0.758100000000000
H      -6.053400000000000      0.581400000000000      0.816800000000000
H      -5.695200000000000      0.900000000000000     -0.878600000000000
H      -1.314500000000000     -1.756000000000000     -0.517000000000000
H      -0.443000000000000     -0.640500000000000      0.506100000000000
H       5.908300000000000      0.968500000000000      0.747400000000000
H       4.206500000000000      0.774900000000000      0.314500000000000
H      -3.111900000000000      4.259300000000000      0.817800000000000
H      -3.990000000000000      1.907300000000000      1.466500000000000
H      -5.291900000000000      2.839200000000000      0.710000000000000
H       0.865400000000000     -2.339300000000000     -1.679500000000000
H       1.682600000000000     -1.160300000000000     -0.649300000000000
H       4.592600000000000     -1.456800000000000     -0.584500000000000
H       6.227500000000000     -1.499200000000000      0.056400000000000
H       0.132900000000000      0.633400000000000     -1.560900000000000
H      -0.625800000000000     -0.577800000000000     -2.584600000000000
H       6.970900000000000      0.272400000000000     -1.444400000000000
H       6.310000000000000     -1.090700000000000     -2.329700000000000
H       0.930300000000000      0.638700000000000     -3.938100000000000
H       1.562800000000000     -0.990700000000000     -3.735900000000000
H       5.658200000000000      1.067900000000000     -3.314700000000000
H       4.904300000000000      1.586700000000000     -1.819200000000000
H       2.527300000000000      1.482300000000000     -2.114100000000000
H       3.951100000000000     -0.848800000000000     -3.502800000000000
H      -2.282800000000000      4.348500000000000     -1.903100000000000
