88

N      -3.478200000000000      0.295000000000000     -0.199500000000000
N       3.493400000000000      0.293500000000000      0.156300000000000
C      -3.630100000000000     -0.908300000000000     -1.016000000000000
C      -4.732100000000000      0.604600000000000      0.484700000000000
C       3.589200000000000     -0.884800000000000      1.016600000000000
C       4.779000000000000      0.558500000000000     -0.486700000000000
C      -4.538600000000000     -1.920900000000000     -0.318700000000000
C      -2.257700000000000     -1.524700000000000     -1.332100000000000
C      -4.459100000000000      1.520100000000000      1.683300000000000
C      -5.713700000000000      1.255700000000000     -0.495700000000000
C       2.193500000000000     -1.465300000000000      1.296300000000000
C       4.504900000000000     -1.936100000000000      0.389700000000000
C       4.571000000000000      1.438900000000000     -1.723900000000000
C       5.733300000000000      1.223900000000000      0.511000000000000
C      -3.049200000000000      1.421400000000000     -1.020100000000000
C       3.054800000000000      1.454400000000000      0.923700000000000
C      -4.800000000000000     -3.147400000000000     -1.199500000000000
C      -2.329800000000000     -3.006700000000000     -1.714200000000000
C      -5.756500000000000      1.928000000000000      2.379100000000000
C      -7.009800000000000      1.663300000000000      0.202900000000000
C       2.221400000000000     -2.935100000000000      1.728500000000000
C       4.706900000000000     -3.137600000000000      1.319300000000000
C       5.902400000000000      1.800900000000000     -2.379700000000000
C       7.063500000000000      1.585600000000000     -0.147600000000000
C      -3.703300000000000     -3.407300000000000     -2.233800000000000
C      -6.741800000000000      2.565900000000000      1.403800000000000
C       3.565000000000000     -3.343300000000000      2.316100000000000
C       6.860200000000000      2.452900000000000     -1.386600000000000
C      -1.539400000000000      1.368100000000000     -1.246900000000000
C       1.545100000000000      1.393300000000000      1.154100000000000
C      -0.778900000000000      1.405400000000000      0.081400000000000
C       0.734500000000000      1.388300000000000     -0.145800000000000
H      -4.117500000000000     -0.660800000000000     -1.970600000000000
H      -5.197100000000000     -0.231400000000000      1.006300000000000
H       4.042400000000000     -0.614000000000000      1.981600000000000
H       5.248400000000000     -0.302500000000000     -0.961700000000000
H      -4.101800000000000     -2.245100000000000      0.635000000000000
H      -5.559200000000000     -1.573900000000000     -0.135900000000000
H      -1.862700000000000     -1.055700000000000     -2.234500000000000
H      -1.535400000000000     -1.407700000000000     -0.517600000000000
H      -3.810400000000000      1.008700000000000      2.406300000000000
H      -3.933900000000000      2.437400000000000      1.395600000000000
H      -5.332400000000000      2.176700000000000     -0.949300000000000
H      -5.969800000000000      0.575200000000000     -1.315900000000000
H       1.776900000000000     -0.976400000000000      2.176000000000000
H       1.502600000000000     -1.362500000000000      0.454300000000000
H       4.100400000000000     -2.283500000000000     -0.570000000000000
H       5.538400000000000     -1.613600000000000      0.237200000000000
H       3.941800000000000      0.915800000000000     -2.455600000000000
H       4.053000000000000      2.374500000000000     -1.486900000000000
H       5.351200000000000      2.167800000000000      0.914500000000000
H       5.942900000000000      0.568200000000000      1.363800000000000
H      -3.233700000000000      2.391100000000000     -0.544100000000000
H      -3.542600000000000      1.457500000000000     -2.000600000000000
H       3.541800000000000      1.536500000000000      1.904600000000000
H       3.234100000000000      2.401200000000000      0.402200000000000
H      -4.912100000000000     -4.025800000000000     -0.551800000000000
H      -5.754900000000000     -3.037800000000000     -1.729100000000000
H      -1.558000000000000     -3.240800000000000     -2.456700000000000
H      -2.098500000000000     -3.612300000000000     -0.828400000000000
H      -6.218300000000000      1.046600000000000      2.840800000000000
H      -5.534200000000000      2.630700000000000      3.190200000000000
H      -7.666900000000000      2.179300000000000     -0.506500000000000
H      -7.543300000000000      0.763700000000000      0.534100000000000
H       1.415800000000000     -3.132200000000000      2.445600000000000
H       2.014800000000000     -3.564900000000000      0.853500000000000
H       4.827600000000000     -4.038700000000000      0.705200000000000
H       5.641900000000000     -3.027900000000000      1.883300000000000
H       6.365500000000000      0.896800000000000     -2.794100000000000
H       5.725800000000000      2.480500000000000     -3.221200000000000
H       7.701500000000000      2.113000000000000      0.570800000000000
H       7.592600000000000      0.666400000000000     -0.428100000000000
H      -3.921800000000000     -2.842500000000000     -3.148800000000000
H      -3.708100000000000     -4.466700000000000     -2.514400000000000
H      -7.683800000000000      2.782000000000000      1.920200000000000
H      -6.340400000000000      3.525700000000000      1.056100000000000
H       3.757700000000000     -2.752800000000000      3.220600000000000
H       3.537900000000000     -4.392900000000000      2.630500000000000
H       7.825900000000000      2.635500000000000     -1.871300000000000
H       6.463600000000000      3.430600000000000     -1.086200000000000
H      -1.167000000000000      0.595100000000000     -1.907000000000000
H      -1.280700000000000      2.291000000000000     -1.787600000000000
H       1.175100000000000      0.674600000000000      1.872400000000000
H       1.296500000000000      2.343500000000000      1.653500000000000
H      -1.051800000000000      2.308300000000000      0.641400000000000
H      -1.043200000000000      0.546900000000000      0.708200000000000
H       1.014600000000000      2.262600000000000     -0.747300000000000
H       0.985400000000000      0.505800000000000     -0.744600000000000
