88

O      -5.919000000000000     -0.788000000000000      1.848600000000000
O      -3.862000000000000      1.960100000000000      1.605800000000000
C      -4.068500000000000     -0.158500000000000      0.448200000000000
C      -2.747600000000000     -0.552400000000000      1.099700000000000
C      -1.555000000000000     -0.129700000000000      0.241800000000000
C      -0.200200000000000     -0.422100000000000      0.894100000000000
C       1.032600000000000      0.030100000000000      0.105300000000000
C       2.355800000000000     -0.364800000000000      0.763900000000000
C      -5.164700000000000     -1.101000000000000      0.926200000000000
C      -4.408200000000000      1.309700000000000      0.714400000000000
C      -5.252400000000000     -2.467000000000000      0.256300000000000
C      -5.469900000000000      1.938000000000000     -0.174800000000000
C       3.550900000000000      0.139200000000000     -0.048400000000000
C      -6.701300000000000     -2.945200000000000      0.140300000000000
C      -6.619800000000000      2.511600000000000      0.650600000000000
C      -7.474200000000000     -2.163100000000000     -0.930600000000000
C      -7.718400000000000      3.180200000000000     -0.187700000000000
C      -8.963800000000001     -2.063700000000000     -0.592600000000000
C      -8.309300000000000      2.330800000000000     -1.318500000000000
C      -9.791700000000001     -1.280400000000000     -1.619200000000000
C      -8.958900000000000      1.029000000000000     -0.839800000000000
C      -9.248900000000001      0.096500000000000     -2.020300000000000
C       4.875300000000000     -0.282500000000000      0.590700000000000
C       6.070200000000000      0.192600000000000     -0.239200000000000
C       7.392300000000000     -0.258200000000000      0.385700000000000
C       8.622900000000000      0.164600000000000     -0.421600000000000
C       9.943800000000000     -0.307400000000000      0.190200000000000
C      11.141500000000001      0.203800000000000     -0.615600000000000
C      12.463200000000001     -0.236300000000000      0.017400000000000
C      13.696899999999999      0.229400000000000     -0.762000000000000
C      15.049300000000001     -0.163600000000000     -0.162900000000000
C      16.239100000000001      0.368200000000000     -0.946000000000000
H      -3.992600000000000     -0.267300000000000     -0.641200000000000
H      -2.695400000000000     -1.640100000000000      1.235500000000000
H      -2.656500000000000     -0.123700000000000      2.105200000000000
H      -1.601000000000000     -0.642200000000000     -0.727200000000000
H      -1.614600000000000      0.945400000000000      0.033300000000000
H      -0.127400000000000     -1.502800000000000      1.071500000000000
H      -0.173700000000000      0.054800000000000      1.882200000000000
H       0.995000000000000      1.119600000000000     -0.016900000000000
H       0.988300000000000     -0.402700000000000     -0.901900000000000
H       2.399100000000000      0.049700000000000      1.778200000000000
H       2.405200000000000     -1.456400000000000      0.857600000000000
H      -4.673200000000000     -3.167700000000000      0.867200000000000
H      -4.792500000000000     -2.424400000000000     -0.736500000000000
H      -5.836900000000000      1.174200000000000     -0.866800000000000
H      -4.986900000000000      2.717400000000000     -0.774200000000000
H       3.510500000000000      1.232600000000000     -0.124700000000000
H       3.493600000000000     -0.258700000000000     -1.068900000000000
H      -7.197100000000000     -2.860500000000000      1.114600000000000
H      -6.711600000000000     -4.009200000000000     -0.124600000000000
H      -6.226600000000000      3.256700000000000      1.354100000000000
H      -7.055800000000000      1.723900000000000      1.275700000000000
H      -7.050300000000000     -1.159700000000000     -1.029200000000000
H      -7.343200000000000     -2.652500000000000     -1.903200000000000
H      -8.526100000000000      3.495100000000000      0.484200000000000
H      -7.309100000000000      4.097500000000000     -0.629300000000000
H      -9.384300000000000     -3.073100000000000     -0.503500000000000
H      -9.083399999999999     -1.595500000000000      0.392200000000000
H      -9.063000000000001      2.927600000000000     -1.847600000000000
H      -7.526000000000000      2.115500000000000     -2.054400000000000
H      -9.887499999999999     -1.886300000000000     -2.528900000000000
H     -10.807399999999999     -1.160400000000000     -1.222200000000000
H      -9.888100000000000      1.253700000000000     -0.303300000000000
H      -8.297300000000000      0.527700000000000     -0.130600000000000
H      -8.337100000000000     -0.041100000000000     -2.614200000000000
H      -9.975500000000000      0.576500000000000     -2.687800000000000
H       4.943100000000000      0.130400000000000      1.604500000000000
H       4.905300000000000     -1.375000000000000      0.683700000000000
H       6.055100000000000      1.286300000000000     -0.317900000000000
H       5.993600000000000     -0.206700000000000     -1.257700000000000
H       7.390800000000000     -1.350800000000000      0.484600000000000
H       7.471100000000000      0.151100000000000      1.400500000000000
H       8.537500000000000     -0.230000000000000     -1.441800000000000
H       8.632099999999999      1.258500000000000     -0.505500000000000
H       9.960699999999999     -1.403100000000000      0.227600000000000
H      10.016000000000000      0.053400000000000      1.223400000000000
H      11.111100000000000      1.298700000000000     -0.670900000000000
H      11.082200000000000     -0.174400000000000     -1.643300000000000
H      12.521599999999999      0.152500000000000      1.041500000000000
H      12.484100000000000     -1.330500000000000      0.092700000000000
H      13.637499999999999     -0.165800000000000     -1.784200000000000
H      13.659100000000000      1.322600000000000     -0.851700000000000
H      15.116199999999999     -1.256600000000000     -0.109700000000000
H      15.109200000000000      0.208500000000000      0.866700000000000
H      16.224000000000000      1.462000000000000     -0.984100000000000
H      16.231300000000001     -0.011400000000000     -1.972600000000000
H      17.175699999999999      0.056200000000000     -0.473800000000000
