88

O       1.026800000000000      0.984900000000000     -2.480100000000000
O       0.989000000000000      3.676000000000000     -0.637600000000000
C      -0.982700000000000     -1.277800000000000      0.642900000000000
C      -0.245600000000000     -0.555000000000000     -0.505000000000000
C       0.388500000000000      0.783900000000000     -0.127300000000000
C      -2.130400000000000     -0.445600000000000      1.262900000000000
C      -1.557800000000000     -2.657900000000000      0.240100000000000
C       1.373200000000000      0.648200000000000      1.048900000000000
C      -3.298000000000000     -0.091800000000000      0.332800000000000
C      -0.501500000000000     -3.764300000000000      0.149600000000000
C       2.608200000000000     -0.216200000000000      0.763300000000000
C       1.017700000000000      1.442500000000000     -1.346300000000000
C      -4.433400000000000      0.655800000000000      1.036600000000000
C       3.498500000000000     -0.334800000000000      2.004900000000000
C      -1.070400000000000     -5.104400000000000     -0.331300000000000
C       4.801600000000000     -1.093600000000000      1.743400000000000
C      -5.551700000000000      1.094900000000000      0.084200000000000
C       5.813900000000000     -0.411100000000000      0.811400000000000
C      -0.002700000000000     -6.190000000000000     -0.491500000000000
C       1.659200000000000      2.790300000000000     -1.145100000000000
C       6.426300000000000      0.881300000000000      1.369700000000000
C       3.083500000000000      2.923400000000000     -1.626200000000000
C      -6.722800000000000      1.778100000000000      0.795200000000000
C       5.733300000000000      2.172300000000000      0.919900000000000
C       3.855900000000000      3.948400000000000     -0.799800000000000
C       6.019600000000000      2.534700000000000     -0.541100000000000
C       5.375400000000000      3.858700000000000     -0.978100000000000
C      -0.561300000000000     -7.510100000000000     -1.029100000000000
C      -7.865400000000000      2.159400000000000     -0.151600000000000
C      -9.067900000000000      2.774000000000000      0.565900000000000
C       0.488900000000000     -8.601599999999999     -1.165700000000000
C     -10.167899999999999      3.147300000000000     -0.416000000000000
H      -0.267000000000000     -1.472600000000000      1.450500000000000
H       0.522100000000000     -1.219900000000000     -0.918100000000000
H      -0.949500000000000     -0.397500000000000     -1.333100000000000
H      -0.413700000000000      1.467100000000000      0.178500000000000
H      -2.531500000000000     -0.998400000000000      2.123500000000000
H      -1.723700000000000      0.479300000000000      1.688500000000000
H      -2.309500000000000     -2.980200000000000      0.971900000000000
H      -2.072300000000000     -2.573200000000000     -0.725000000000000
H       0.856600000000000      0.275700000000000      1.940000000000000
H       1.724200000000000      1.650700000000000      1.327800000000000
H      -2.927000000000000      0.528600000000000     -0.491100000000000
H      -3.710400000000000     -1.002300000000000     -0.115700000000000
H       0.294100000000000     -3.456300000000000     -0.538200000000000
H      -0.034200000000000     -3.902000000000000      1.132300000000000
H       3.173600000000000      0.217500000000000     -0.064700000000000
H       2.306700000000000     -1.223100000000000      0.455600000000000
H      -4.854400000000000      0.011900000000000      1.818500000000000
H      -4.027100000000000      1.541800000000000      1.539900000000000
H       2.939100000000000     -0.876700000000000      2.778600000000000
H       3.713000000000000      0.651700000000000      2.427000000000000
H      -1.573600000000000     -4.954100000000000     -1.294400000000000
H      -1.834800000000000     -5.447900000000000      0.376300000000000
H       4.557300000000000     -2.078500000000000      1.325500000000000
H       5.288800000000000     -1.286300000000000      2.707700000000000
H      -5.138500000000000      1.776400000000000     -0.669400000000000
H      -5.925100000000000      0.215500000000000     -0.455100000000000
H       5.382900000000000     -0.257500000000000     -0.182000000000000
H       6.636100000000000     -1.125500000000000      0.670900000000000
H       0.780100000000000     -5.830400000000000     -1.170800000000000
H       0.477100000000000     -6.367700000000000      0.478800000000000
H       6.431700000000000      0.841700000000000      2.465600000000000
H       7.478700000000000      0.931300000000000      1.062400000000000
H       3.550100000000000      1.938500000000000     -1.549500000000000
H       3.070100000000000      3.207800000000000     -2.683500000000000
H      -6.361100000000000      2.677900000000000      1.307600000000000
H      -7.111100000000000      1.106200000000000      1.570600000000000
H       4.657500000000000      2.090600000000000      1.085300000000000
H       6.089400000000000      2.992100000000000      1.556200000000000
H       3.599700000000000      3.858500000000000      0.262200000000000
H       3.529200000000000      4.954100000000000     -1.094500000000000
H       7.104500000000000      2.623800000000000     -0.680500000000000
H       5.696200000000000      1.729000000000000     -1.207000000000000
H       5.836400000000000      4.676300000000000     -0.409800000000000
H       5.623600000000000      4.036700000000000     -2.031700000000000
H      -1.355500000000000     -7.866200000000000     -0.362200000000000
H      -1.022400000000000     -7.337200000000000     -2.008700000000000
H      -7.487100000000000      2.866100000000000     -0.900700000000000
H      -8.192200000000000      1.265300000000000     -0.697100000000000
H      -8.754000000000000      3.669200000000000      1.114800000000000
H      -9.464200000000000      2.064100000000000      1.300900000000000
H       0.035800000000000     -9.519399999999999     -1.553000000000000
H       1.282300000000000     -8.295299999999999     -1.854800000000000
H       0.944300000000000     -8.828300000000000     -0.196500000000000
H      -9.810300000000000      3.880900000000000     -1.145600000000000
H     -11.018200000000000      3.584700000000000      0.116500000000000
H     -10.524100000000001      2.266500000000000     -0.959700000000000
