88

O      -1.853800000000000     -1.274500000000000      1.953000000000000
O      -1.099200000000000      0.711600000000000     -2.180100000000000
C      -0.789000000000000     -0.359000000000000     -0.023000000000000
C       0.011200000000000     -1.405000000000000     -0.818100000000000
C       0.172000000000000      0.310800000000000      0.976200000000000
C      -1.915700000000000     -1.097900000000000      0.734400000000000
C      -1.324000000000000      0.733500000000000     -0.968200000000000
C       0.584600000000000     -2.469600000000000      0.109400000000000
C       1.300500000000000      1.071200000000000      0.293100000000000
C      -3.095400000000000     -1.627900000000000     -0.083500000000000
C      -2.122200000000000      1.875500000000000     -0.352100000000000
C       1.400800000000000     -3.532000000000000     -0.632300000000000
C       2.255600000000000      1.759500000000000      1.270700000000000
C      -4.041300000000000     -2.534300000000000      0.712100000000000
C      -3.334200000000000      2.220600000000000     -1.216100000000000
C       2.643500000000000     -2.969700000000000     -1.328300000000000
C      -4.956100000000000     -1.789900000000000      1.696500000000000
C      -4.352300000000000      3.070400000000000     -0.449900000000000
C      -6.403700000000000     -1.613600000000000      1.213700000000000
C      -5.783800000000000      2.966600000000000     -0.992800000000000
C       3.379800000000000      2.485500000000000      0.528200000000000
C       3.606700000000000     -2.343900000000000     -0.315800000000000
C      -6.598900000000000     -0.741800000000000     -0.029300000000000
C      -6.361600000000000      1.545600000000000     -1.085600000000000
C      -6.199400000000000      0.718400000000000      0.193900000000000
C       4.876700000000000     -1.774100000000000     -0.954700000000000
C       4.356800000000000      3.142000000000000      1.503400000000000
C       5.850900000000000     -1.171500000000000      0.060000000000000
C       7.065000000000000     -0.553300000000000     -0.637200000000000
C       5.493500000000000      3.836300000000000      0.770300000000000
C       8.021000000000001      0.082900000000000      0.371600000000000
C       9.212100000000000      0.727300000000000     -0.319500000000000
H      -0.634200000000000     -1.896500000000000     -1.557200000000000
H       0.793100000000000     -0.931800000000000     -1.417500000000000
H       0.575000000000000     -0.380800000000000      1.722000000000000
H      -0.390700000000000      1.033300000000000      1.584300000000000
H      -0.231700000000000     -3.006200000000000      0.607700000000000
H       1.204100000000000     -2.063700000000000      0.908400000000000
H       1.904900000000000      0.400100000000000     -0.322400000000000
H       0.900200000000000      1.838100000000000     -0.379100000000000
H      -3.641400000000000     -0.785300000000000     -0.509100000000000
H      -2.691400000000000     -2.221000000000000     -0.909200000000000
H      -2.462200000000000      1.566200000000000      0.641400000000000
H      -1.465200000000000      2.742100000000000     -0.228600000000000
H       0.766300000000000     -4.021700000000000     -1.380900000000000
H       1.702600000000000     -4.310800000000000      0.078800000000000
H       1.698300000000000      2.474000000000000      1.888200000000000
H       2.685400000000000      1.010900000000000      1.947400000000000
H      -4.647500000000000     -3.122300000000000      0.012800000000000
H      -3.438900000000000     -3.258300000000000      1.275800000000000
H      -3.013500000000000      2.756800000000000     -2.117800000000000
H      -3.783700000000000      1.288500000000000     -1.568000000000000
H       2.372800000000000     -2.242600000000000     -2.100200000000000
H       3.153500000000000     -3.791700000000000     -1.845700000000000
H      -4.527700000000000     -0.826700000000000      1.991800000000000
H      -5.004400000000000     -2.387400000000000      2.616600000000000
H      -4.034800000000000      4.120100000000000     -0.483900000000000
H      -4.360400000000000      2.801200000000000      0.612800000000000
H      -6.829000000000000     -2.604800000000000      1.011600000000000
H      -6.993500000000000     -1.191400000000000      2.037200000000000
H      -6.436900000000000      3.569200000000000     -0.349300000000000
H      -5.824400000000000      3.423800000000000     -1.989000000000000
H       2.952100000000000      3.247900000000000     -0.134100000000000
H       3.920700000000000      1.773000000000000     -0.106700000000000
H       3.122300000000000     -1.527900000000000      0.227200000000000
H       3.888800000000000     -3.098300000000000      0.429200000000000
H      -6.035700000000000     -1.163500000000000     -0.869400000000000
H      -7.657300000000000     -0.778800000000000     -0.315900000000000
H      -7.427800000000000      1.618500000000000     -1.334600000000000
H      -5.896000000000000      1.021100000000000     -1.928100000000000
H      -5.161300000000000      0.748100000000000      0.530300000000000
H      -6.808700000000000      1.156600000000000      0.993200000000000
H       4.590700000000000     -1.005100000000000     -1.683300000000000
H       5.385400000000000     -2.568200000000000     -1.515200000000000
H       3.827600000000000      3.873200000000000      2.125400000000000
H       4.775500000000000      2.384800000000000      2.176600000000000
H       6.179800000000000     -1.948700000000000      0.760100000000000
H       5.335200000000000     -0.403100000000000      0.648600000000000
H       6.728500000000000      0.208200000000000     -1.351500000000000
H       7.592900000000000     -1.324500000000000     -1.211100000000000
H       6.062200000000000      3.123900000000000      0.164000000000000
H       5.112400000000000      4.622200000000000      0.110400000000000
H       6.180900000000000      4.297200000000000      1.486400000000000
H       8.379600000000000     -0.677500000000000      1.075000000000000
H       7.492200000000000      0.843500000000000      0.957800000000000
H       8.887700000000001      1.517400000000000     -1.004300000000000
H       9.883400000000000      1.174100000000000      0.420500000000000
H       9.780900000000001     -0.012200000000000     -0.892000000000000
