88

O       2.222900000000000     -0.810900000000000      1.084300000000000
O      -2.013000000000000      2.959000000000000      1.681500000000000
C      -5.737800000000000     -3.154100000000000     -0.824300000000000
C      -4.290100000000000     -3.580700000000000     -1.096300000000000
C       4.419200000000000      1.885900000000000     -0.492500000000000
C       5.782000000000000      1.262800000000000     -0.802100000000000
C      -5.913000000000000     -1.942200000000000      0.098300000000000
C      -3.515900000000000     -3.952300000000000      0.170900000000000
C       3.835300000000000      2.575200000000000     -1.729200000000000
C       6.471800000000000      0.669900000000000      0.429400000000000
C      -5.193800000000000     -0.687700000000000     -0.400100000000000
C      -2.096300000000000     -4.459000000000000     -0.109400000000000
C       2.532200000000000      3.330600000000000     -1.447700000000000
C       5.767800000000000     -0.524400000000000      1.083500000000000
C      -5.418100000000000      0.499300000000000      0.538800000000000
C      -1.163700000000000     -3.475600000000000     -0.827800000000000
C       1.379500000000000      2.410300000000000     -1.042900000000000
C       5.594500000000000     -1.715700000000000      0.137600000000000
C      -4.596200000000000      1.710500000000000      0.093900000000000
C      -0.935500000000000     -2.173700000000000     -0.054800000000000
C       0.022800000000000      3.118600000000000     -0.979500000000000
C       5.275600000000000     -3.023300000000000      0.867800000000000
C      -4.771400000000000      2.891800000000000      1.053100000000000
C      -0.049500000000000     -1.168700000000000     -0.800900000000000
C      -0.038800000000000      4.225300000000000      0.079100000000000
C       3.916500000000000     -3.088900000000000      1.574800000000000
C      -3.891600000000000      4.081100000000000      0.667600000000000
C       1.393800000000000     -1.618000000000000     -1.012000000000000
C      -1.449700000000000      4.795900000000000      0.229600000000000
C       2.726200000000000     -3.122200000000000      0.614800000000000
C       2.144600000000000     -1.755400000000000      0.299100000000000
C      -2.410200000000000      3.836600000000000      0.915400000000000
H      -6.219200000000000     -2.937500000000000     -1.786200000000000
H      -6.283500000000000     -4.001600000000000     -0.391100000000000
H      -3.774800000000000     -2.783600000000000     -1.641500000000000
H      -4.309800000000000     -4.447800000000000     -1.768300000000000
H       3.732900000000000      1.107800000000000     -0.147200000000000
H       4.524300000000000      2.615700000000000      0.319000000000000
H       6.441000000000000      2.037500000000000     -1.214600000000000
H       5.676600000000000      0.501300000000000     -1.583100000000000
H      -5.568000000000000     -2.192100000000000      1.108200000000000
H      -6.986000000000000     -1.730000000000000      0.185500000000000
H      -4.062200000000000     -4.742800000000000      0.700800000000000
H      -3.468600000000000     -3.101300000000000      0.857400000000000
H       3.668600000000000      1.834500000000000     -2.520800000000000
H       4.566700000000000      3.294100000000000     -2.119100000000000
H       6.595900000000000      1.457000000000000      1.183600000000000
H       7.484800000000000      0.362300000000000      0.140200000000000
H      -5.546900000000000     -0.433800000000000     -1.406800000000000
H      -4.118200000000000     -0.878000000000000     -0.473200000000000
H      -2.160000000000000     -5.375600000000000     -0.709000000000000
H      -1.637500000000000     -4.747100000000000      0.844800000000000
H       2.252100000000000      3.879700000000000     -2.355100000000000
H       2.712200000000000      4.077500000000000     -0.666000000000000
H       4.798500000000000     -0.212900000000000      1.484300000000000
H       6.372300000000000     -0.832900000000000      1.945800000000000
H      -5.129700000000000      0.218800000000000      1.559200000000000
H      -6.483200000000000      0.758800000000000      0.561300000000000
H      -1.552000000000000     -3.252700000000000     -1.827800000000000
H      -0.204300000000000     -3.984100000000000     -0.977000000000000
H       1.587400000000000      1.952200000000000     -0.069400000000000
H       1.301800000000000      1.593800000000000     -1.770600000000000
H       6.529800000000000     -1.867000000000000     -0.416200000000000
H       4.822900000000000     -1.501200000000000     -0.609000000000000
H      -4.899800000000000      2.010700000000000     -0.916500000000000
H      -3.539100000000000      1.425400000000000      0.038300000000000
H      -0.508200000000000     -2.396700000000000      0.929600000000000
H      -1.896600000000000     -1.681700000000000      0.127300000000000
H      -0.741400000000000      2.361000000000000     -0.768400000000000
H      -0.217600000000000      3.539000000000000     -1.963700000000000
H       6.060900000000000     -3.212100000000000      1.610700000000000
H       5.339700000000000     -3.848300000000000      0.146900000000000
H      -4.550000000000000      2.576000000000000      2.079800000000000
H      -5.820800000000000      3.210200000000000      1.036800000000000
H      -0.057400000000000     -0.227700000000000     -0.237500000000000
H      -0.498500000000000     -0.950000000000000     -1.777400000000000
H       0.629700000000000      5.043100000000000     -0.213200000000000
H       0.322500000000000      3.843600000000000      1.041200000000000
H       3.827200000000000     -2.283500000000000      2.311100000000000
H       3.902900000000000     -4.026200000000000      2.146400000000000
H      -4.177300000000000      4.956900000000000      1.260500000000000
H      -4.040600000000000      4.321300000000000     -0.390600000000000
H       1.933200000000000     -0.875700000000000     -1.611500000000000
H       1.435100000000000     -2.556400000000000     -1.572000000000000
H      -1.847400000000000      5.059500000000000     -0.756400000000000
H      -1.417700000000000      5.707000000000000      0.837200000000000
H       1.911200000000000     -3.699700000000000      1.067200000000000
H       3.007300000000000     -3.623100000000000     -0.317500000000000
