88

O       5.371300000000000      0.312100000000000     -1.370900000000000
O       7.471800000000000     -0.433300000000000      1.118700000000000
C      -6.430700000000000      0.856700000000000      0.858000000000000
C      -6.065400000000000      2.262000000000000      0.368200000000000
C      -5.766600000000000      0.548600000000000      2.201600000000000
C      -6.170800000000000      2.419200000000000     -1.153200000000000
C      -6.090600000000000     -0.843200000000000      2.753400000000000
C      -5.141400000000000      1.618100000000000     -1.966000000000000
C      -5.831700000000000     -2.024200000000000      1.810800000000000
C      -3.690800000000000      2.024600000000000     -1.686600000000000
C      -4.427000000000000     -2.047700000000000      1.201000000000000
C      -2.702900000000000      1.178500000000000     -2.495000000000000
C      -4.216300000000000     -3.304900000000000      0.352300000000000
C      -1.270700000000000      1.721600000000000     -2.463700000000000
C      -3.014100000000000     -3.213700000000000     -0.591600000000000
C      -0.652200000000000      1.780800000000000     -1.063900000000000
C      -1.689300000000000     -2.937700000000000      0.119100000000000
C       0.780900000000000      2.316300000000000     -1.125400000000000
C      -0.516100000000000     -2.998500000000000     -0.862000000000000
C       1.393300000000000      2.475100000000000      0.269100000000000
C       0.798400000000000     -2.637700000000000     -0.171900000000000
C       2.796600000000000      3.080400000000000      0.179400000000000
C       1.989400000000000     -2.770200000000000     -1.123300000000000
C       3.440300000000000      3.360800000000000      1.541000000000000
C       3.278600000000000     -2.319300000000000     -0.437500000000000
C       3.647300000000000      2.144500000000000      2.449500000000000
C       4.500100000000000     -2.473200000000000     -1.347600000000000
C       4.381400000000000      0.963300000000000      1.812600000000000
C       5.777600000000000     -1.977900000000000     -0.668200000000000
C       5.791000000000000      1.296900000000000      1.332100000000000
C       5.807400000000000     -0.472400000000000     -0.541300000000000
C       6.451600000000000      0.094300000000000      0.701400000000000
H      -6.127800000000000      0.109100000000000      0.122900000000000
H      -7.520400000000000      0.776700000000000      0.951600000000000
H      -6.745900000000000      2.980100000000000      0.843100000000000
H      -5.060300000000000      2.541700000000000      0.700400000000000
H      -6.079300000000000      1.296800000000000      2.940600000000000
H      -4.678800000000000      0.650100000000000      2.103700000000000
H      -6.060800000000000      3.482400000000000     -1.400700000000000
H      -7.178000000000000      2.127500000000000     -1.475000000000000
H      -7.145600000000000     -0.869000000000000      3.053500000000000
H      -5.507600000000000     -0.990700000000000      3.671100000000000
H      -5.353500000000000      1.778700000000000     -3.030700000000000
H      -5.265100000000000      0.544300000000000     -1.791100000000000
H      -6.578300000000000     -2.016600000000000      1.007300000000000
H      -5.998400000000000     -2.952200000000000      2.372200000000000
H      -3.560700000000000      3.085800000000000     -1.929600000000000
H      -3.466900000000000      1.900100000000000     -0.623000000000000
H      -3.679600000000000     -2.011700000000000      2.002100000000000
H      -4.273800000000000     -1.163100000000000      0.574100000000000
H      -3.027600000000000      1.139500000000000     -3.542100000000000
H      -2.713600000000000      0.147100000000000     -2.121800000000000
H      -4.102200000000000     -4.173200000000000      1.012600000000000
H      -5.107800000000000     -3.490400000000000     -0.259700000000000
H      -0.647600000000000      1.085400000000000     -3.104600000000000
H      -1.259300000000000      2.723500000000000     -2.910800000000000
H      -3.198300000000000     -2.427300000000000     -1.334200000000000
H      -2.941700000000000     -4.157500000000000     -1.146200000000000
H      -0.657000000000000      0.781500000000000     -0.612700000000000
H      -1.247700000000000      2.435100000000000     -0.417700000000000
H      -1.537600000000000     -3.672500000000000      0.918800000000000
H      -1.716800000000000     -1.946700000000000      0.586700000000000
H       0.783000000000000      3.287900000000000     -1.634700000000000
H       1.401200000000000      1.637600000000000     -1.723700000000000
H      -0.447000000000000     -4.006600000000000     -1.288100000000000
H      -0.693000000000000     -2.305800000000000     -1.694100000000000
H       0.754700000000000      3.123300000000000      0.881100000000000
H       1.430200000000000      1.496100000000000      0.759800000000000
H       0.951700000000000     -3.290600000000000      0.696100000000000
H       0.739400000000000     -1.609000000000000      0.205000000000000
H       2.739100000000000      4.031400000000000     -0.365400000000000
H       3.444200000000000      2.428200000000000     -0.417300000000000
H       1.818300000000000     -2.161000000000000     -2.019000000000000
H       2.085900000000000     -3.812200000000000     -1.450900000000000
H       2.826200000000000      4.092900000000000      2.080500000000000
H       4.407300000000000      3.849600000000000      1.371300000000000
H       3.431800000000000     -2.901000000000000      0.479700000000000
H       3.166800000000000     -1.272200000000000     -0.139700000000000
H       4.196500000000000      2.467900000000000      3.342500000000000
H       2.671200000000000      1.794000000000000      2.806300000000000
H       4.334700000000000     -1.934600000000000     -2.288200000000000
H       4.624600000000000     -3.532700000000000     -1.601800000000000
H       3.780500000000000      0.571400000000000      0.987400000000000
H       4.439300000000000      0.150300000000000      2.547800000000000
H       6.654100000000000     -2.272300000000000     -1.255600000000000
H       5.868200000000000     -2.433800000000000      0.323800000000000
H       6.407700000000000      1.621700000000000      2.177900000000000
H       5.795400000000000      2.107900000000000      0.597200000000000
