88

O      -4.834000000000000     -0.199800000000000     -1.916300000000000
O      -5.935800000000000     -0.985300000000000      0.386200000000000
C       0.614200000000000     -4.247500000000000     -1.272000000000000
C      -0.642100000000000     -3.871100000000000     -0.475800000000000
C      -0.169400000000000      2.975700000000000     -0.826400000000000
C       1.637300000000000     -3.121200000000000     -1.461300000000000
C      -1.687000000000000      3.147000000000000     -0.729100000000000
C      -0.337500000000000     -3.420600000000000      0.955800000000000
C       0.602900000000000      3.753300000000000      0.243200000000000
C      -2.389900000000000      2.547800000000000     -1.949900000000000
C       1.122500000000000     -1.966000000000000     -2.324600000000000
C      -1.593000000000000     -3.108200000000000      1.776700000000000
C       0.235300000000000      3.446100000000000      1.698500000000000
C      -3.918200000000000      2.636700000000000     -1.876000000000000
C      -2.319500000000000     -1.851400000000000      1.291600000000000
C       2.030000000000000     -0.731400000000000     -2.297900000000000
C       0.339300000000000      1.978800000000000      2.123100000000000
C      -4.567100000000000      1.865000000000000     -0.718500000000000
C      -3.495700000000000     -1.490700000000000      2.204100000000000
C       3.465800000000000     -1.001800000000000     -2.753700000000000
C       1.724300000000000      1.373000000000000      1.885700000000000
C      -4.279700000000000      0.363600000000000     -0.738500000000000
C      -4.171400000000000     -0.184000000000000      1.794500000000000
C       4.307500000000000      0.273800000000000     -2.885500000000000
C       1.834500000000000     -0.023500000000000      2.501500000000000
C      -4.903800000000000     -0.318800000000000      0.471900000000000
C       4.464200000000000      1.096300000000000     -1.602100000000000
C       2.973600000000000     -0.870300000000000      1.925900000000000
C       5.284700000000000      0.391000000000000     -0.516600000000000
C       4.390400000000000     -0.507500000000000      2.381000000000000
C       5.309900000000000      1.213700000000000      0.740300000000000
C       4.907800000000000      0.837300000000000      1.964200000000000
H       1.111600000000000     -5.084700000000000     -0.766300000000000
H       0.306600000000000     -4.620200000000000     -2.256800000000000
H      -1.297800000000000     -4.750100000000000     -0.438200000000000
H      -1.199200000000000     -3.097900000000000     -1.012900000000000
H       0.173600000000000      3.323700000000000     -1.808900000000000
H       0.082600000000000      1.910200000000000     -0.772400000000000
H       2.522800000000000     -3.554600000000000     -1.942400000000000
H       1.971300000000000     -2.749300000000000     -0.487800000000000
H      -2.043100000000000      2.660500000000000      0.184000000000000
H      -1.938700000000000      4.211500000000000     -0.652900000000000
H       0.304800000000000     -2.534400000000000      0.947500000000000
H       0.221500000000000     -4.214400000000000      1.466200000000000
H       0.449200000000000      4.826800000000000      0.074100000000000
H       1.675600000000000      3.579500000000000      0.094000000000000
H      -2.060700000000000      3.088200000000000     -2.846600000000000
H      -2.077400000000000      1.507400000000000     -2.091600000000000
H       0.132500000000000     -1.646300000000000     -1.982600000000000
H       1.002100000000000     -2.311600000000000     -3.358500000000000
H      -1.290400000000000     -2.964300000000000      2.821400000000000
H      -2.274900000000000     -3.966600000000000      1.758300000000000
H      -0.784800000000000      3.795600000000000      1.898100000000000
H       0.888100000000000      4.045000000000000      2.346500000000000
H      -4.209700000000000      3.691500000000000     -1.796100000000000
H      -4.333200000000000      2.276500000000000     -2.825300000000000
H      -2.688100000000000     -2.013400000000000      0.273800000000000
H      -1.614700000000000     -1.012000000000000      1.254500000000000
H       2.029200000000000     -0.326000000000000     -1.281000000000000
H       1.583800000000000      0.036700000000000     -2.941700000000000
H      -0.416100000000000      1.384300000000000      1.596200000000000
H       0.093800000000000      1.914700000000000      3.190600000000000
H      -4.259200000000000      2.302900000000000      0.237200000000000
H      -5.651800000000000      2.025100000000000     -0.783800000000000
H      -3.134400000000000     -1.385500000000000      3.234300000000000
H      -4.225400000000000     -2.309500000000000      2.200700000000000
H       3.442500000000000     -1.497700000000000     -3.732000000000000
H       3.958900000000000     -1.695900000000000     -2.065600000000000
H       2.482500000000000      2.031100000000000      2.322100000000000
H       1.914700000000000      1.314800000000000      0.809100000000000
H      -3.208900000000000      0.146500000000000     -0.736700000000000
H      -3.439300000000000      0.628200000000000      1.737500000000000
H      -4.911300000000000      0.109600000000000      2.547900000000000
H       3.852000000000000      0.914200000000000     -3.651300000000000
H       5.301400000000000      0.002200000000000     -3.262000000000000
H       0.898600000000000     -0.564400000000000      2.313500000000000
H       1.933900000000000      0.054800000000000      3.590600000000000
H       3.479500000000000      1.381300000000000     -1.214700000000000
H       4.965700000000000      2.037500000000000     -1.864600000000000
H       2.913300000000000     -0.867600000000000      0.833500000000000
H       2.794500000000000     -1.909600000000000      2.231800000000000
H       6.314900000000000      0.258500000000000     -0.867800000000000
H       4.889000000000000     -0.608900000000000     -0.323600000000000
H       5.084000000000000     -1.277400000000000      2.018900000000000
H       4.438600000000000     -0.567800000000000      3.475800000000000
H       5.688000000000000      2.229100000000000      0.632600000000000
H       4.987500000000000      1.574700000000000      2.761200000000000
H      -5.778700000000000      0.029200000000000     -1.946700000000000
