89

N      -1.820300000000000      0.581100000000000     -0.347900000000000
N       1.769700000000000      0.024000000000000      0.465700000000000
C      -0.423300000000000      0.292300000000000     -0.688100000000000
C       0.467000000000000      0.697100000000000      0.496400000000000
C      -1.910600000000000      1.928200000000000      0.253700000000000
C      -2.384700000000000     -0.457900000000000      0.536400000000000
C       2.796600000000000      0.806100000000000      1.182500000000000
C       1.629800000000000     -1.340800000000000      1.015600000000000
C      -3.342300000000000      2.473900000000000      0.407200000000000
C      -2.554600000000000     -1.818000000000000     -0.162900000000000
C       3.157900000000000      2.122000000000000      0.471600000000000
C       2.848300000000000     -2.256000000000000      0.793900000000000
C      -0.073200000000000      1.031600000000000     -1.979500000000000
C      -4.097200000000000      2.569500000000000     -0.923400000000000
C      -3.340400000000000     -2.843400000000000      0.671700000000000
C       4.374900000000000      2.836200000000000      1.083700000000000
C       3.198500000000000     -2.446000000000000     -0.686200000000000
C      -5.579700000000000      2.936000000000000     -0.764900000000000
C      -4.807800000000000     -2.488900000000000      0.950300000000000
C       5.709800000000000      2.085900000000000      0.975000000000000
C       4.514800000000000     -3.202500000000000     -0.914900000000000
C      -6.429500000000000      1.947900000000000      0.047400000000000
C      -5.681100000000000     -2.478400000000000     -0.308400000000000
C      -6.372100000000000      0.514000000000000     -0.484700000000000
C      -7.090100000000000     -1.915000000000000     -0.077300000000000
C       6.211100000000000      1.940900000000000     -0.465400000000000
C       5.775600000000000     -2.539500000000000     -0.341000000000000
C      -7.156600000000000     -0.457100000000000      0.401200000000000
C       7.422500000000000      1.008800000000000     -0.606400000000000
C       5.986800000000000     -1.105200000000000     -0.831600000000000
C       7.200100000000000     -0.446800000000000     -0.170000000000000
H      -0.301900000000000     -0.765000000000000     -0.932400000000000
H       0.604300000000000      1.780800000000000      0.457900000000000
H       0.018400000000000      0.488600000000000      1.475100000000000
H      -1.379300000000000      2.671100000000000     -0.350800000000000
H      -1.484500000000000      1.962300000000000      1.263500000000000
H      -3.379100000000000     -0.137700000000000      0.849300000000000
H      -1.806200000000000     -0.587700000000000      1.457700000000000
H       2.477900000000000      1.014200000000000      2.212100000000000
H       3.708300000000000      0.212200000000000      1.251200000000000
H       1.421800000000000     -1.294000000000000      2.093000000000000
H       0.773400000000000     -1.851900000000000      0.562100000000000
H      -3.285600000000000      3.477500000000000      0.848500000000000
H      -3.893800000000000      1.866300000000000      1.129500000000000
H      -1.574900000000000     -2.265600000000000     -0.360500000000000
H      -3.033700000000000     -1.680400000000000     -1.138200000000000
H       2.324200000000000      2.829500000000000      0.530100000000000
H       3.328600000000000      1.935700000000000     -0.594300000000000
H       2.625600000000000     -3.238600000000000      1.229200000000000
H       3.704300000000000     -1.872800000000000      1.355300000000000
H      -0.030800000000000      2.118600000000000     -1.865600000000000
H       0.913900000000000      0.713700000000000     -2.334900000000000
H      -0.792100000000000      0.799800000000000     -2.773800000000000
H      -3.616500000000000      3.337700000000000     -1.542600000000000
H      -4.011900000000000      1.636300000000000     -1.489500000000000
H      -3.302700000000000     -3.812700000000000      0.159100000000000
H      -2.827400000000000     -2.980600000000000      1.631800000000000
H       4.170400000000000      3.030300000000000      2.144000000000000
H       4.481500000000000      3.817000000000000      0.603900000000000
H       3.237500000000000     -1.483100000000000     -1.205700000000000
H       2.388600000000000     -3.010000000000000     -1.166300000000000
H      -6.017100000000000      3.031900000000000     -1.766600000000000
H      -5.655600000000000      3.926000000000000     -0.298600000000000
H      -4.858600000000000     -1.532200000000000      1.475600000000000
H      -5.216300000000000     -3.233500000000000      1.645500000000000
H       6.464500000000000      2.640500000000000      1.547100000000000
H       5.622200000000000      1.112600000000000      1.463500000000000
H       4.426900000000000     -4.209900000000000     -0.489800000000000
H       4.650200000000000     -3.333900000000000     -1.995700000000000
H      -7.470500000000000      2.294300000000000      0.035100000000000
H      -6.115200000000000      1.967900000000000      1.097100000000000
H      -5.776700000000000     -3.508400000000000     -0.674800000000000
H      -5.202500000000000     -1.920200000000000     -1.117800000000000
H      -6.763500000000000      0.482700000000000     -1.508200000000000
H      -5.330000000000000      0.191800000000000     -0.524700000000000
H      -7.648100000000000     -1.997900000000000     -1.018500000000000
H      -7.615600000000000     -2.546000000000000      0.649800000000000
H       6.494000000000000      2.933800000000000     -0.837500000000000
H       5.414700000000000      1.592600000000000     -1.128800000000000
H       6.645000000000000     -3.146900000000000     -0.621700000000000
H       5.734400000000000     -2.555700000000000      0.754000000000000
H      -8.209400000000000     -0.149900000000000      0.431300000000000
H      -6.791100000000000     -0.393100000000000      1.432600000000000
H       8.262600000000001      1.421000000000000     -0.034100000000000
H       7.734100000000000      1.012800000000000     -1.658500000000000
H       5.096800000000000     -0.516800000000000     -0.600800000000000
H       6.108700000000000     -1.100300000000000     -1.921000000000000
H       7.094800000000000     -0.490400000000000      0.920200000000000
H       8.101699999999999     -1.022900000000000     -0.412500000000000
