89

N      -8.420500000000001      2.750800000000000     -1.689000000000000
N       6.915500000000000      1.896200000000000      2.775700000000000
C      -1.032900000000000     -1.657000000000000      0.816200000000000
C       1.335200000000000     -1.768100000000000     -0.047800000000000
C      -4.001100000000000     -1.808100000000000      0.796700000000000
C       4.065900000000000     -0.893100000000000     -0.828900000000000
C       0.341500000000000     -2.302300000000000      0.981900000000000
C      -1.839500000000000     -1.759500000000000      2.116900000000000
C      -1.795700000000000     -2.298800000000000     -0.349800000000000
C       1.901700000000000     -0.413900000000000      0.397800000000000
C       2.464100000000000     -2.779000000000000     -0.285800000000000
C      -5.376300000000000     -1.163800000000000      0.631500000000000
C       5.060900000000000     -0.359200000000000     -1.857800000000000
C      -3.238400000000000     -1.165700000000000      1.962200000000000
C      -3.194800000000000     -1.705200000000000     -0.504300000000000
C       2.937200000000000      0.118100000000000     -0.591200000000000
C       3.499300000000000     -2.246800000000000     -1.275000000000000
C      -5.253200000000000      0.341300000000000      0.272800000000000
C       5.702600000000000      0.979700000000000     -1.392800000000000
C      -6.187500000000000     -1.364000000000000      1.922300000000000
C      -6.111800000000000     -1.873000000000000     -0.522600000000000
C       6.197300000000000     -1.390500000000000     -2.033400000000000
C       4.355700000000000     -0.186400000000000     -3.216900000000000
C      -6.576300000000000      1.079100000000000      0.026000000000000
C       6.442700000000000      0.929200000000000     -0.048900000000000
C      -6.322700000000000      2.537000000000000     -0.382900000000000
C       6.982100000000000      2.315300000000000      0.331800000000000
C      -7.612200000000000      3.341200000000000     -0.622100000000000
C       7.757600000000000      2.329000000000000      1.660500000000000
C      -7.277900000000000      4.783700000000000     -1.000000000000000
C       8.281599999999999      3.733600000000000      1.956800000000000
H      -0.916600000000000     -0.588000000000000      0.598100000000000
H       0.833900000000000     -1.622300000000000     -1.012300000000000
H      -4.125000000000000     -2.876100000000000      1.028200000000000
H       4.571500000000000     -1.069500000000000      0.129000000000000
H       0.241300000000000     -3.391600000000000      0.890200000000000
H       0.731700000000000     -2.120500000000000      1.991700000000000
H      -1.923900000000000     -2.810700000000000      2.421400000000000
H      -1.314800000000000     -1.236200000000000      2.925500000000000
H      -1.255300000000000     -2.166300000000000     -1.293100000000000
H      -1.884600000000000     -3.381000000000000     -0.188300000000000
H       2.370900000000000     -0.510600000000000      1.385600000000000
H       1.102200000000000      0.327800000000000      0.501300000000000
H       2.959300000000000     -3.015500000000000      0.664900000000000
H       2.050200000000000     -3.719200000000000     -0.670200000000000
H      -3.114300000000000     -0.087500000000000      1.824400000000000
H      -3.762600000000000     -1.313800000000000      2.911600000000000
H      -3.684400000000000     -2.240400000000000     -1.323900000000000
H      -3.056500000000000     -0.669600000000000     -0.826300000000000
H       3.323400000000000      1.056800000000000     -0.182100000000000
H       2.402500000000000      0.361800000000000     -1.513800000000000
H       2.999300000000000     -2.186400000000000     -2.245800000000000
H       4.285200000000000     -3.004100000000000     -1.358000000000000
H      -4.739800000000000      0.883300000000000      1.073700000000000
H      -4.656400000000000      0.479600000000000     -0.633200000000000
H       6.418400000000000      1.306800000000000     -2.160400000000000
H       4.945600000000000      1.772500000000000     -1.366100000000000
H      -5.845000000000000     -0.710900000000000      2.731500000000000
H      -6.135300000000000     -2.401500000000000      2.271700000000000
H      -7.248300000000000     -1.135600000000000      1.767900000000000
H      -7.185800000000000     -1.654100000000000     -0.511300000000000
H      -5.741300000000000     -1.572000000000000     -1.508200000000000
H      -6.020900000000000     -2.962800000000000     -0.442200000000000
H       5.880500000000000     -2.264000000000000     -2.613700000000000
H       6.580700000000000     -1.750300000000000     -1.072500000000000
H       7.039500000000000     -0.953400000000000     -2.583400000000000
H       3.546500000000000      0.547400000000000     -3.195800000000000
H       3.980200000000000     -1.117700000000000     -3.647600000000000
H       5.077900000000000      0.198500000000000     -3.949400000000000
H      -7.134100000000000      0.573800000000000     -0.767200000000000
H      -7.194200000000000      1.062000000000000      0.930400000000000
H       5.760200000000000      0.587700000000000      0.733100000000000
H       7.277800000000000      0.222500000000000     -0.096200000000000
H      -5.704500000000000      2.554500000000000     -1.290500000000000
H      -5.737500000000000      3.030700000000000      0.403600000000000
H       6.145000000000000      3.024200000000000      0.385900000000000
H       7.642800000000000      2.671900000000000     -0.468900000000000
H      -8.205299999999999      3.351500000000000      0.300100000000000
H       8.613000000000000      1.647300000000000      1.584000000000000
H      -6.696000000000000      4.833000000000000     -1.927400000000000
H      -6.691200000000000      5.263700000000000     -0.209200000000000
H      -8.189100000000000      5.376100000000000     -1.140200000000000
H       7.463700000000000      4.455800000000000      2.058900000000000
H       8.936600000000000      4.079400000000000      1.149700000000000
H       8.865000000000000      3.749400000000000      2.884400000000000
H      -9.241899999999999      3.330500000000000     -1.858100000000000
H      -8.776300000000001      1.843200000000000     -1.393600000000000
H       7.439900000000000      1.962200000000000      3.647500000000000
H       6.676000000000000      0.911900000000000      2.668800000000000
