89

O      -6.982000000000000      2.161300000000000      1.692700000000000
N       4.305800000000000      0.427600000000000     -0.334600000000000
C      -3.475300000000000      0.293700000000000      0.134500000000000
C      -2.163200000000000     -0.156100000000000     -0.676300000000000
C      -4.789400000000000      0.264800000000000     -0.775300000000000
C       1.474800000000000     -1.022200000000000      0.384600000000000
C      -0.939800000000000     -0.373300000000000      0.263000000000000
C      -2.422000000000000     -1.515900000000000     -1.392200000000000
C      -3.346400000000000      1.712900000000000      0.768300000000000
C      -4.958200000000000     -1.146500000000000     -1.387600000000000
C       1.317800000000000     -2.236000000000000      1.375500000000000
C       0.261400000000000     -0.825000000000000     -0.540400000000000
C      -6.033700000000000      0.617200000000000      0.093500000000000
C       2.729900000000000     -1.448900000000000     -0.430300000000000
C      -3.729600000000000     -1.607200000000000     -2.176900000000000
C      -3.638100000000000     -0.700400000000000      1.346900000000000
C      -4.589900000000000      2.138400000000000      1.560100000000000
C      -5.897100000000000      1.980400000000000      0.785000000000000
C      -1.661100000000000      0.874300000000000     -1.716200000000000
C       2.779300000000000     -2.531100000000000      1.780500000000000
C       3.655200000000000     -2.123900000000000      0.592100000000000
C      -4.819200000000000      1.289600000000000     -1.949200000000000
C       1.708200000000000      0.315600000000000      1.126700000000000
C       3.443700000000000     -0.356100000000000     -1.218900000000000
C       0.718400000000000     -3.498700000000000      0.711600000000000
C       0.466500000000000     -1.933500000000000      2.619600000000000
C       4.281500000000000     -0.951100000000000     -2.346800000000000
C       4.607700000000000      1.722100000000000     -0.924800000000000
C       5.507700000000000      2.531000000000000      0.011100000000000
C       6.850900000000000      1.840000000000000      0.313700000000000
C       7.709400000000000      2.636300000000000      1.297600000000000
C       7.626700000000000      1.620700000000000     -0.987700000000000
H      -0.765600000000000      0.550000000000000      0.814600000000000
H      -1.214100000000000     -1.153300000000000      0.954700000000000
H      -2.408600000000000     -2.337700000000000     -0.666000000000000
H      -1.633300000000000     -1.746700000000000     -2.116800000000000
H      -3.142100000000000      2.464400000000000     -0.001000000000000
H      -2.488900000000000      1.752400000000000      1.450000000000000
H      -5.832100000000000     -1.166700000000000     -2.051800000000000
H      -5.170600000000000     -1.880400000000000     -0.600800000000000
H       0.089700000000000     -1.747200000000000     -1.097400000000000
H       0.548000000000000     -0.074500000000000     -1.281000000000000
H      -6.250800000000000     -0.162000000000000      0.832700000000000
H      -6.941300000000000      0.629200000000000     -0.526700000000000
H       2.413300000000000     -2.218700000000000     -1.147900000000000
H      -3.883000000000000     -2.647200000000000     -2.491200000000000
H      -3.635600000000000     -1.033500000000000     -3.104900000000000
H      -3.599100000000000     -1.749500000000000      1.044300000000000
H      -4.575300000000000     -0.576900000000000      1.892200000000000
H      -2.858700000000000     -0.540100000000000      2.100300000000000
H      -4.647400000000000      1.580100000000000      2.502800000000000
H      -4.481000000000000      3.185900000000000      1.869800000000000
H      -5.968300000000000      2.784000000000000      0.043600000000000
H      -1.082400000000000      1.674900000000000     -1.238900000000000
H      -2.446500000000000      1.382500000000000     -2.259500000000000
H      -1.038600000000000      0.421900000000000     -2.496100000000000
H       2.941200000000000     -3.579500000000000      2.054500000000000
H       3.065000000000000     -1.930000000000000      2.653400000000000
H       4.483900000000000     -1.531000000000000      0.982700000000000
H       4.109100000000000     -3.013900000000000      0.139200000000000
H      -4.264900000000000      0.963000000000000     -2.829800000000000
H      -4.466000000000000      2.283600000000000     -1.666300000000000
H      -5.846000000000000      1.420100000000000     -2.315900000000000
H       0.929700000000000      0.584500000000000      1.842500000000000
H       1.774500000000000      1.156600000000000      0.427200000000000
H       2.634100000000000      0.295100000000000      1.711700000000000
H       2.686500000000000      0.286100000000000     -1.683700000000000
H       1.268500000000000     -3.809700000000000     -0.181100000000000
H       0.744100000000000     -4.345200000000000      1.408800000000000
H      -0.330000000000000     -3.357800000000000      0.431900000000000
H       0.687200000000000     -2.695400000000000      3.381400000000000
H       0.699800000000000     -0.984800000000000      3.105000000000000
H      -0.610300000000000     -2.015300000000000      2.480600000000000
H       5.093500000000000     -1.580200000000000     -1.964400000000000
H       4.725100000000000     -0.184100000000000     -2.988600000000000
H       3.659900000000000     -1.578000000000000     -2.996400000000000
H      -7.806400000000000      2.078300000000000      1.183700000000000
H       5.176800000000000     -0.079100000000000     -0.189400000000000
H       3.678700000000000      2.290000000000000     -1.060700000000000
H       5.074000000000000      1.643800000000000     -1.910700000000000
H       4.977600000000000      2.712200000000000      0.955500000000000
H       5.688800000000000      3.517200000000000     -0.434900000000000
H       6.679400000000000      0.865700000000000      0.784600000000000
H       8.644900000000000      2.110900000000000      1.517000000000000
H       7.960000000000000      3.623500000000000      0.894900000000000
H       7.176900000000000      2.782000000000000      2.243300000000000
H       7.741200000000000      2.554900000000000     -1.548100000000000
H       7.138100000000000      0.886200000000000     -1.634500000000000
H       8.630100000000001      1.233700000000000     -0.777500000000000
