89

N      -1.219700000000000      1.496900000000000     -1.832700000000000
N       1.294900000000000     -0.623100000000000     -1.540600000000000
C      -1.303200000000000      0.328900000000000     -0.930200000000000
C       1.217400000000000      0.583200000000000     -0.695500000000000
C      -2.717700000000000      0.285500000000000     -0.236200000000000
C       2.455500000000000      0.673400000000000      0.285000000000000
C      -0.127700000000000      0.463200000000000      0.059500000000000
C      -1.078300000000000     -0.948400000000000     -1.784700000000000
C       1.162100000000000      1.820000000000000     -1.628800000000000
C      -3.850300000000000      0.159700000000000     -1.304600000000000
C       2.445700000000000      2.039200000000000      1.026900000000000
C      -3.009800000000000      1.550700000000000      0.610000000000000
C      -2.829000000000000     -0.911400000000000      0.745400000000000
C       3.806200000000000      0.536600000000000     -0.468100000000000
C       2.435700000000000     -0.446800000000000      1.352000000000000
C      -2.317600000000000     -1.480500000000000     -2.511000000000000
C       1.179300000000000      3.144900000000000     -0.867900000000000
C      -3.436100000000000     -0.463500000000000     -2.640300000000000
C       2.359900000000000      3.242500000000000      0.089200000000000
C      -4.340500000000000      1.414400000000000      1.328400000000000
C      -2.638000000000000     -2.222900000000000      0.005900000000000
C       4.965700000000000      0.553600000000000      0.512200000000000
C       2.483000000000000     -1.811200000000000      0.689100000000000
C      -4.612200000000000      2.652500000000000      2.182600000000000
C      -2.722300000000000     -3.397500000000000      0.980200000000000
C       6.291800000000000      0.392000000000000     -0.230700000000000
C       2.489600000000000     -2.914200000000000      1.747200000000000
C      -5.924200000000000      2.529200000000000      2.940900000000000
C      -2.501000000000000     -4.725000000000000      0.273000000000000
C       7.469800000000000      0.371600000000000      0.730200000000000
C       2.571000000000000     -4.293700000000000      1.113500000000000
H      -0.266900000000000      1.325000000000000      0.716800000000000
H      -0.128500000000000     -0.419000000000000      0.706400000000000
H      -0.532700000000000     -0.625400000000000     -2.684000000000000
H      -0.485400000000000     -1.771800000000000     -1.386100000000000
H       2.148500000000000      1.819600000000000     -2.125100000000000
H       0.609700000000000      1.815900000000000     -2.569600000000000
H      -4.700600000000000     -0.406600000000000     -0.902300000000000
H      -4.257900000000000      1.151100000000000     -1.545900000000000
H       1.569600000000000      2.074400000000000      1.688600000000000
H       3.286900000000000      2.167400000000000      1.712600000000000
H      -2.228300000000000      1.706400000000000      1.361100000000000
H      -3.033300000000000      2.450100000000000     -0.015500000000000
H      -2.118200000000000     -0.820500000000000      1.574600000000000
H      -3.821600000000000     -1.001100000000000      1.192900000000000
H       3.950000000000000      1.366300000000000     -1.167700000000000
H       3.887700000000000     -0.354900000000000     -1.093100000000000
H       1.523300000000000     -0.372900000000000      1.956900000000000
H       3.217900000000000     -0.338300000000000      2.109200000000000
H      -2.632300000000000     -2.497400000000000     -2.277300000000000
H      -1.997600000000000     -1.664300000000000     -3.552200000000000
H       0.248000000000000      3.296800000000000     -0.313000000000000
H       1.242800000000000      3.970000000000000     -1.587800000000000
H      -4.312700000000000     -0.958300000000000     -3.078600000000000
H      -3.175900000000000      0.306400000000000     -3.373900000000000
H       2.260300000000000      4.156700000000000      0.686800000000000
H       3.291900000000000      3.352500000000000     -0.475900000000000
H      -1.437500000000000      2.351900000000000     -1.325600000000000
H      -1.886300000000000      1.452000000000000     -2.593500000000000
H       2.187800000000000     -1.096600000000000     -1.469700000000000
H       1.313800000000000     -0.337300000000000     -2.522400000000000
H      -4.351600000000000      0.587600000000000      2.040900000000000
H      -5.174300000000000      1.277700000000000      0.632800000000000
H      -1.646800000000000     -2.416300000000000     -0.332800000000000
H      -3.479300000000000     -2.401500000000000     -0.661700000000000
H       5.027300000000000      1.487100000000000      1.075500000000000
H       4.933300000000000     -0.274400000000000      1.222900000000000
H       1.569800000000000     -2.036200000000000      0.141700000000000
H       3.360400000000000     -1.963400000000000      0.057300000000000
H      -3.797400000000000      2.801100000000000      2.901100000000000
H      -4.649500000000000      3.543900000000000      1.545400000000000
H      -1.973700000000000     -3.286400000000000      1.774600000000000
H      -3.704300000000000     -3.411600000000000      1.468600000000000
H       6.288400000000000     -0.540000000000000     -0.808300000000000
H       6.424100000000000      1.214900000000000     -0.942900000000000
H       1.584200000000000     -2.852400000000000      2.362900000000000
H       3.346800000000000     -2.781800000000000      2.418000000000000
H      -6.101500000000000      3.428500000000000      3.539100000000000
H      -6.766200000000000      2.408700000000000      2.251900000000000
H      -5.908400000000000      1.669500000000000      3.618400000000000
H      -2.582700000000000     -5.551100000000000      0.986500000000000
H      -3.246700000000000     -4.881400000000000     -0.513000000000000
H      -1.506300000000000     -4.770500000000000     -0.182300000000000
H       8.407500000000001      0.259300000000000      0.176900000000000
H       7.524500000000000      1.301800000000000      1.304600000000000
H       7.389600000000000     -0.463200000000000      1.433800000000000
H       2.578400000000000     -5.066300000000000      1.888700000000000
H       1.711800000000000     -4.477800000000000      0.460200000000000
H       3.484200000000000     -4.401000000000000      0.519500000000000
