89

N      -2.929400000000000     -0.621700000000000     -1.774700000000000
N       3.649500000000000     -0.277800000000000     -0.690600000000000
C      -1.260400000000000     -0.837200000000000      0.092600000000000
C       1.174600000000000     -0.716300000000000     -0.648400000000000
C      -0.224400000000000     -0.057700000000000     -0.754900000000000
C      -2.748300000000000     -0.487000000000000     -0.315200000000000
C       2.329900000000000      0.299900000000000     -1.016800000000000
C      -0.987600000000000     -2.355100000000000     -0.112800000000000
C       1.215300000000000     -1.947400000000000     -1.598800000000000
C      -0.972000000000000     -0.480700000000000      1.573000000000000
C       1.301100000000000     -1.242100000000000      0.803000000000000
C      -3.751300000000000     -1.440200000000000      0.388000000000000
C       2.307900000000000      0.633500000000000     -2.532500000000000
C      -2.002000000000000     -3.257500000000000      0.586600000000000
C       1.202100000000000     -1.575500000000000     -3.080100000000000
C      -3.143200000000000      0.964500000000000      0.023100000000000
C       2.246400000000000      1.623200000000000     -0.229900000000000
C      -3.434100000000000     -2.922400000000000      0.193800000000000
C       2.314300000000000     -0.599000000000000     -3.436000000000000
C      -0.703500000000000      1.006200000000000      1.717600000000000
C       2.590300000000000     -2.025800000000000      0.974300000000000
C      -4.538300000000000      1.277400000000000     -0.494700000000000
C       3.442900000000000      2.509400000000000     -0.538300000000000
C      -0.393900000000000      1.349300000000000      3.174600000000000
C       2.698400000000000     -2.565400000000000      2.400200000000000
C      -4.914600000000000      2.725500000000000     -0.182100000000000
C       3.370600000000000      3.807700000000000      0.265000000000000
C      -0.087300000000000      2.828700000000000      3.345400000000000
C       3.965300000000000     -3.383800000000000      2.591500000000000
C      -6.293700000000000      3.071400000000000     -0.720800000000000
C       4.575300000000000      4.695900000000000     -0.002100000000000
H      -0.529600000000000     -0.104900000000000     -1.803800000000000
H      -0.254100000000000      1.017200000000000     -0.605000000000000
H      -1.189800000000000     -2.566900000000000     -1.170600000000000
H      -0.088600000000000     -2.899600000000000      0.135500000000000
H       2.197800000000000     -2.421700000000000     -1.497800000000000
H       0.593500000000000     -2.824100000000000     -1.524300000000000
H      -0.406400000000000     -1.100000000000000      2.268800000000000
H      -1.930700000000000     -0.614400000000000      2.095000000000000
H       0.660200000000000     -1.963800000000000      1.257100000000000
H       1.428800000000000     -0.404500000000000      1.493300000000000
H      -4.770800000000000     -1.307400000000000      0.008800000000000
H      -3.811600000000000     -1.227000000000000      1.461500000000000
H       3.170500000000000      1.234900000000000     -2.837700000000000
H       1.417800000000000      1.233100000000000     -2.763900000000000
H      -1.888500000000000     -3.173100000000000      1.674100000000000
H      -1.804800000000000     -4.306600000000000      0.332700000000000
H       0.230700000000000     -1.172900000000000     -3.383000000000000
H       1.340800000000000     -2.485400000000000     -3.678400000000000
H      -3.220100000000000      1.095200000000000      1.106400000000000
H      -2.443300000000000      1.685100000000000     -0.413300000000000
H       1.349500000000000      2.194200000000000     -0.485000000000000
H       2.248500000000000      1.440300000000000      0.848900000000000
H      -3.603000000000000     -3.206000000000000     -0.852100000000000
H      -4.127000000000000     -3.525300000000000      0.792300000000000
H       3.284400000000000     -1.106200000000000     -3.371200000000000
H       2.201800000000000     -0.285600000000000     -4.480600000000000
H      -2.522000000000000     -1.488600000000000     -2.116000000000000
H      -3.918600000000000     -0.696500000000000     -2.008400000000000
H       3.759800000000000     -1.177600000000000     -1.156600000000000
H       4.397000000000000      0.282300000000000     -1.097800000000000
H      -1.469000000000000      1.700500000000000      1.405200000000000
H       0.198400000000000      1.317000000000000      1.210800000000000
H       3.494800000000000     -1.433500000000000      0.959800000000000
H       2.682800000000000     -2.886000000000000      0.309200000000000
H      -5.300500000000000      0.641100000000000     -0.036500000000000
H      -4.612900000000000      1.161000000000000     -1.580500000000000
H       3.488200000000000      2.787800000000000     -1.594500000000000
H       4.393300000000000      2.038400000000000     -0.271000000000000
H      -1.249900000000000      1.088100000000000      3.808000000000000
H       0.463800000000000      0.765800000000000      3.529600000000000
H       2.689700000000000     -1.739400000000000      3.121800000000000
H       1.838600000000000     -3.205400000000000      2.632500000000000
H      -4.178600000000000      3.407800000000000     -0.623500000000000
H      -4.900800000000000      2.890400000000000      0.901700000000000
H       3.324200000000000      3.583500000000000      1.337300000000000
H       2.456300000000000      4.355900000000000      0.008800000000000
H      -0.937500000000000      3.445700000000000      3.037600000000000
H       0.129500000000000      3.051000000000000      4.395000000000000
H       0.783900000000000      3.121800000000000      2.750600000000000
H       4.858900000000000     -2.777400000000000      2.412300000000000
H       4.017000000000000     -3.765900000000000      3.616000000000000
H       3.988000000000000     -4.240200000000000      1.909900000000000
H      -6.332200000000000      2.953000000000000     -1.808400000000000
H      -6.542800000000000      4.110500000000000     -0.484000000000000
H      -7.061200000000000      2.429000000000000     -0.277400000000000
H       5.505700000000000      4.192200000000000      0.278900000000000
H       4.500900000000000      5.619700000000000      0.580200000000000
H       4.636800000000000      4.966600000000000     -1.061000000000000
