89

O       0.997800000000000     -0.560200000000000      1.643400000000000
N       0.467500000000000     -0.189800000000000      0.430800000000000
C      -0.256100000000000      1.110300000000000      0.574800000000000
C       1.575400000000000     -0.051000000000000     -0.559200000000000
C      -0.479700000000000     -1.255700000000000     -0.030800000000000
C      -0.824000000000000      1.486600000000000     -0.799600000000000
C      -1.329600000000000      0.939600000000000      1.664700000000000
C       2.485600000000000     -1.287200000000000     -0.478600000000000
C       2.252400000000000      1.312200000000000     -0.354700000000000
C      -0.644300000000000     -1.079600000000000     -1.545800000000000
C       0.088700000000000     -2.601800000000000      0.452500000000000
C      -1.022300000000000      2.993800000000000     -1.003400000000000
C      -1.642100000000000      2.217300000000000      2.452300000000000
C       3.356900000000000     -1.368700000000000      0.782100000000000
C       3.436400000000000      1.572400000000000     -1.292200000000000
C      -1.709200000000000     -1.892500000000000     -2.287000000000000
C      -0.868600000000000     -3.797200000000000      0.489200000000000
C      -2.210400000000000      3.306600000000000     -1.919300000000000
C      -3.123500000000000      2.622600000000000      2.464500000000000
C       4.797900000000000     -1.817700000000000      0.523500000000000
C       4.637600000000000      2.242100000000000     -0.619100000000000
C      -3.176300000000000     -1.541200000000000     -2.001700000000000
C      -2.083200000000000     -3.600700000000000      1.402300000000000
C      -3.526300000000000      3.686100000000000     -1.218900000000000
C      -3.516000000000000      3.566900000000000      1.325000000000000
C       5.656900000000000     -0.946400000000000     -0.403800000000000
C       5.303300000000000      1.498700000000000      0.547700000000000
C      -3.789500000000000     -2.063000000000000     -0.699000000000000
C      -3.407900000000000     -4.113100000000000      0.821500000000000
C      -3.897000000000000      2.861400000000000      0.018400000000000
C       6.236900000000000      0.339300000000000      0.191000000000000
C      -3.787400000000000     -3.589900000000000     -0.570400000000000
H       0.443900000000000      1.843500000000000      0.980800000000000
H       1.257300000000000      0.015600000000000     -1.595100000000000
H      -1.420100000000000     -1.089200000000000      0.469800000000000
H      -1.787400000000000      1.000700000000000     -0.962000000000000
H      -0.125400000000000      1.345900000000000     -1.618500000000000
H      -1.046000000000000      0.186600000000000      2.410000000000000
H      -2.262200000000000      0.564600000000000      1.231100000000000
H       3.178200000000000     -1.130800000000000     -1.310500000000000
H       2.142600000000000     -2.244900000000000     -0.829600000000000
H       1.600400000000000      2.162000000000000     -0.561100000000000
H       2.556400000000000      1.435100000000000      0.688900000000000
H       0.249200000000000     -1.543200000000000     -1.993300000000000
H      -0.726300000000000     -0.162300000000000     -2.087100000000000
H       0.805800000000000     -3.022700000000000     -0.231900000000000
H       0.534700000000000     -2.591900000000000      1.449500000000000
H      -1.110700000000000      3.530100000000000     -0.058900000000000
H      -0.119100000000000      3.406600000000000     -1.474000000000000
H      -1.355500000000000      2.024900000000000      3.495700000000000
H      -1.017400000000000      3.060800000000000      2.140900000000000
H       2.914600000000000     -2.109900000000000      1.459400000000000
H       3.387100000000000     -0.437800000000000      1.343400000000000
H       3.766900000000000      0.688700000000000     -1.831800000000000
H       3.090500000000000      2.246900000000000     -2.088600000000000
H      -1.554700000000000     -1.711000000000000     -3.361900000000000
H      -1.528800000000000     -2.962200000000000     -2.180400000000000
H      -1.157800000000000     -4.080900000000000     -0.521500000000000
H      -0.310500000000000     -4.668300000000000      0.861500000000000
H      -1.937100000000000      4.149600000000000     -2.567400000000000
H      -2.394200000000000      2.464700000000000     -2.598800000000000
H      -3.781700000000000      1.747000000000000      2.501100000000000
H      -3.294200000000000      3.170500000000000      3.400900000000000
H       4.757500000000000     -2.825700000000000      0.089500000000000
H       5.311000000000000     -1.926100000000000      1.487200000000000
H       4.303900000000000      3.218700000000000     -0.243800000000000
H       5.394400000000000      2.457500000000000     -1.383700000000000
H      -3.302200000000000     -0.452800000000000     -2.041900000000000
H      -3.777800000000000     -1.940100000000000     -2.829600000000000
H      -1.897500000000000     -4.144500000000000      2.338300000000000
H      -2.200700000000000     -2.560200000000000      1.715000000000000
H      -3.503100000000000      4.753300000000000     -0.965000000000000
H      -4.328000000000000      3.578700000000000     -1.961200000000000
H      -4.391400000000000      4.145000000000000      1.650600000000000
H      -2.723400000000000      4.307600000000000      1.174700000000000
H       5.177800000000000     -0.751100000000000     -1.362200000000000
H       6.526900000000000     -1.565800000000000     -0.667400000000000
H       5.936100000000000      2.243100000000000      1.052600000000000
H       4.583300000000000      1.204200000000000      1.310200000000000
H      -3.338200000000000     -1.569500000000000      0.158800000000000
H      -4.836900000000000     -1.731600000000000     -0.676000000000000
H      -3.373900000000000     -5.209000000000000      0.777700000000000
H      -4.211000000000000     -3.860100000000000      1.525100000000000
H      -4.988200000000000      2.736000000000000      0.027300000000000
H      -3.499500000000000      1.849900000000000     -0.048000000000000
H       6.991800000000000      0.719500000000000     -0.510100000000000
H       6.792100000000000      0.068300000000000      1.098900000000000
H      -4.797500000000000     -3.954700000000000     -0.800000000000000
H      -3.150500000000000     -4.061500000000000     -1.323200000000000
