89

O       3.248200000000000      0.257700000000000      1.551500000000000
N      -1.661900000000000      0.697200000000000     -0.661200000000000
C      -2.498500000000000     -1.593200000000000     -0.248600000000000
C      -2.854300000000000     -0.009900000000000     -0.163200000000000
C      -0.132900000000000     -1.685300000000000      1.303600000000000
C       1.280500000000000      1.854300000000000     -0.052400000000000
C      -0.996000000000000     -2.019400000000000      0.043500000000000
C       1.289200000000000      0.296900000000000      0.211800000000000
C       0.382000000000000     -0.206400000000000      1.371200000000000
C       0.102900000000000      2.330300000000000     -0.995600000000000
C      -1.422300000000000      2.141500000000000     -0.676200000000000
C      -3.452700000000000     -2.458900000000000      0.613300000000000
C      -4.077200000000000      0.319700000000000     -1.062000000000000
C      -2.725400000000000     -2.109300000000000     -1.716900000000000
C       1.339800000000000      2.663500000000000      1.258600000000000
C       2.694200000000000     -0.154700000000000      0.529400000000000
C      -3.297600000000000      0.407000000000000      1.257100000000000
C      -0.859700000000000     -2.026400000000000      2.617600000000000
C       1.091200000000000     -2.644200000000000      1.255200000000000
C       2.565700000000000      2.252000000000000     -0.853700000000000
C       3.400800000000000     -1.127600000000000     -0.443300000000000
C      -2.188700000000000      2.782000000000000     -1.860700000000000
C      -1.755300000000000      2.932600000000000      0.555000000000000
C      -3.284900000000000     -3.922100000000000      0.285400000000000
C      -5.292800000000000     -0.463600000000000     -0.624400000000000
C       1.555100000000000      4.131800000000000      0.974900000000000
C       4.691500000000000     -0.473000000000000     -1.011700000000000
C       2.468300000000000     -1.458400000000000     -1.642400000000000
C       3.765400000000000     -2.428000000000000      0.303100000000000
C      -2.162100000000000      4.206400000000000      0.539000000000000
C       5.740200000000000     -0.079500000000000      0.023800000000000
C       3.047300000000000     -2.413100000000000     -2.681700000000000
H      -0.439200000000000     -1.649300000000000     -0.821600000000000
H      -0.913000000000000     -3.102000000000000     -0.099200000000000
H       0.904000000000000     -0.120600000000000     -0.705000000000000
H       0.918000000000000     -0.085900000000000      2.323800000000000
H      -0.471700000000000      0.452800000000000      1.480000000000000
H       0.276200000000000      1.824600000000000     -1.961500000000000
H       0.261100000000000      3.386800000000000     -1.250400000000000
H      -1.397600000000000      0.312600000000000     -1.567600000000000
H      -3.241400000000000     -2.328000000000000      1.675700000000000
H      -4.511200000000000     -2.261200000000000      0.528000000000000
H      -4.342200000000000      1.376500000000000     -0.957500000000000
H      -3.882700000000000      0.165800000000000     -2.128600000000000
H      -3.770500000000000     -2.241200000000000     -1.999600000000000
H      -2.225700000000000     -3.067000000000000     -1.909700000000000
H      -2.277000000000000     -1.422400000000000     -2.444200000000000
H       0.451200000000000      2.527800000000000      1.874100000000000
H       2.171800000000000      2.335200000000000      1.889500000000000
H      -3.779800000000000      1.391000000000000      1.266600000000000
H      -2.458400000000000      0.458400000000000      1.949700000000000
H      -4.003900000000000     -0.274100000000000      1.735100000000000
H      -1.257400000000000     -3.046900000000000      2.605800000000000
H      -1.680000000000000     -1.339200000000000      2.827300000000000
H      -0.173700000000000     -1.958700000000000      3.471000000000000
H       0.807500000000000     -3.625200000000000      1.663400000000000
H       1.883100000000000     -2.289700000000000      1.910800000000000
H       1.358500000000000     -2.874800000000000      0.240500000000000
H       2.672800000000000      1.617900000000000     -1.738000000000000
H       3.478800000000000      2.189200000000000     -0.254500000000000
H       2.515800000000000      3.271400000000000     -1.253900000000000
H      -2.140800000000000      2.137000000000000     -2.748300000000000
H      -1.749900000000000      3.735800000000000     -2.181000000000000
H      -3.247700000000000      2.963700000000000     -1.656300000000000
H      -1.632400000000000      2.474100000000000      1.529400000000000
H      -3.949600000000000     -4.489900000000000      0.951100000000000
H      -2.293800000000000     -4.331400000000000      0.483900000000000
H      -3.607000000000000     -4.199900000000000     -0.721300000000000
H      -5.353900000000000     -1.474500000000000     -1.025200000000000
H      -6.159300000000000      0.024700000000000     -1.095600000000000
H      -5.537500000000000     -0.432600000000000      0.437400000000000
H       2.558500000000000      4.355100000000000      0.601000000000000
H       1.475600000000000      4.680000000000000      1.922300000000000
H       0.816300000000000      4.582600000000000      0.311800000000000
H       4.457300000000000      0.405700000000000     -1.618200000000000
H       5.189800000000000     -1.175800000000000     -1.690300000000000
H       1.524100000000000     -1.902000000000000     -1.354300000000000
H       2.229200000000000     -0.541100000000000     -2.194600000000000
H       3.167800000000000     -3.306200000000000      0.061300000000000
H       3.846500000000000     -2.297800000000000      1.386100000000000
H       4.768600000000000     -2.755300000000000     -0.005600000000000
H      -2.365700000000000      4.707700000000000      1.480800000000000
H      -2.291600000000000      4.803700000000000     -0.353500000000000
H       5.973500000000000     -0.893200000000000      0.715300000000000
H       5.431400000000000      0.794900000000000      0.602300000000000
H       6.670800000000000      0.194900000000000     -0.485400000000000
H       3.376600000000000     -3.357400000000000     -2.240200000000000
H       3.886200000000000     -1.968500000000000     -3.224100000000000
H       2.281100000000000     -2.651100000000000     -3.428300000000000
