89

N      -4.746500000000000      0.077100000000000     -0.082300000000000
N       4.360000000000000     -0.863800000000000      0.205200000000000
C      -6.102000000000000      0.504200000000000      0.345800000000000
C      -4.532500000000000     -1.361000000000000     -0.393000000000000
C       4.631500000000000     -1.558400000000000     -1.078100000000000
C       3.516700000000000     -1.559900000000000      1.212300000000000
C      -7.199000000000000     -0.367600000000000     -0.309400000000000
C      -5.613100000000000     -2.275600000000000      0.228400000000000
C       3.449300000000000     -2.469600000000000     -1.484600000000000
C       3.440100000000000     -3.086100000000000      0.978100000000000
C      -7.047000000000000     -1.859500000000000     -0.059900000000000
C       3.061200000000000     -3.499200000000000     -0.435600000000000
C      -3.641600000000000      0.764900000000000      0.578100000000000
C       5.467300000000000     -0.070700000000000      0.729100000000000
C      -6.357200000000000      1.949400000000000     -0.155600000000000
C      -6.281500000000000      0.504000000000000      1.880900000000000
C      -3.167200000000000     -1.937700000000000      0.071700000000000
C      -4.548800000000000     -1.489500000000000     -1.934000000000000
C       4.756900000000000     -0.502500000000000     -2.207000000000000
C       5.941400000000000     -2.378500000000000     -1.058100000000000
C       3.968500000000000     -1.377700000000000      2.687000000000000
C       2.105100000000000     -0.935400000000000      1.117100000000000
C      -2.572000000000000      1.221000000000000     -0.417400000000000
C       5.009500000000000      1.315000000000000      1.189400000000000
C      -1.420500000000000      1.983000000000000      0.247400000000000
C       4.345500000000000      2.126600000000000      0.072300000000000
C      -0.380500000000000      2.503400000000000     -0.750200000000000
C       3.830500000000000      3.491600000000000      0.540200000000000
C       0.806600000000000      3.204600000000000     -0.084500000000000
C       3.074500000000000      4.312200000000000     -0.510000000000000
C       1.844700000000000      3.635900000000000     -1.123600000000000
H      -7.203800000000000     -0.194500000000000     -1.393800000000000
H      -8.196000000000000     -0.053900000000000      0.028100000000000
H      -5.479900000000000     -3.312600000000000     -0.108400000000000
H      -5.471800000000000     -2.311200000000000      1.316400000000000
H       3.668100000000000     -2.991000000000000     -2.426200000000000
H       2.570100000000000     -1.849900000000000     -1.705900000000000
H       4.410000000000000     -3.536800000000000      1.225200000000000
H       2.727700000000000     -3.547700000000000      1.675200000000000
H      -7.680100000000000     -2.163800000000000      0.782700000000000
H      -7.427000000000000     -2.405700000000000     -0.932000000000000
H       1.980400000000000     -3.677300000000000     -0.496200000000000
H       3.536200000000000     -4.461500000000000     -0.662700000000000
H      -3.983100000000000      1.686800000000000      1.061300000000000
H      -3.213400000000000      0.190500000000000      1.405600000000000
H       6.220600000000000      0.125400000000000     -0.041900000000000
H       6.035500000000000     -0.585600000000000      1.509600000000000
H      -6.199400000000000      2.025400000000000     -1.238200000000000
H      -5.708500000000000      2.688200000000000      0.325500000000000
H      -7.390200000000000      2.257100000000000      0.047200000000000
H      -5.665300000000000      1.262200000000000      2.375400000000000
H      -6.032500000000000     -0.460000000000000      2.331800000000000
H      -7.321800000000000      0.725600000000000      2.148100000000000
H      -3.048900000000000     -1.890200000000000      1.159600000000000
H      -3.105900000000000     -3.003600000000000     -0.187100000000000
H      -2.298500000000000     -1.481100000000000     -0.401700000000000
H      -3.738700000000000     -0.909100000000000     -2.391000000000000
H      -5.484800000000000     -1.143700000000000     -2.380900000000000
H      -4.414200000000000     -2.533400000000000     -2.241400000000000
H       4.868900000000000     -0.990100000000000     -3.183200000000000
H       3.862700000000000      0.129100000000000     -2.263200000000000
H       5.624500000000000      0.153000000000000     -2.085100000000000
H       5.977100000000000     -3.090900000000000     -0.230000000000000
H       6.050200000000000     -2.955300000000000     -1.984500000000000
H       6.831000000000000     -1.744900000000000     -0.979800000000000
H       3.917400000000000     -0.353000000000000      3.052500000000000
H       4.973600000000000     -1.775300000000000      2.863800000000000
H       3.304500000000000     -1.947800000000000      3.351200000000000
H       2.121600000000000      0.128700000000000      1.379600000000000
H       1.411200000000000     -1.428500000000000      1.808200000000000
H       1.669500000000000     -1.013900000000000      0.117300000000000
H      -3.045000000000000      1.889700000000000     -1.149900000000000
H      -2.154800000000000      0.398900000000000     -1.000800000000000
H       5.888900000000000      1.865800000000000      1.547000000000000
H       4.323000000000000      1.270800000000000      2.035300000000000
H      -0.927100000000000      1.320400000000000      0.969300000000000
H      -1.822900000000000      2.829900000000000      0.816600000000000
H       3.500500000000000      1.558700000000000     -0.327200000000000
H       5.055200000000000      2.273900000000000     -0.750200000000000
H      -0.010100000000000      1.659500000000000     -1.345800000000000
H      -0.866400000000000      3.195300000000000     -1.449200000000000
H       3.194000000000000      3.358100000000000      1.422900000000000
H       4.687600000000000      4.086300000000000      0.881600000000000
H       1.254500000000000      2.513500000000000      0.637200000000000
H       0.454800000000000      4.078900000000000      0.475500000000000
H       2.766200000000000      5.260200000000000     -0.051900000000000
H       3.766500000000000      4.571500000000000     -1.320800000000000
H       2.159300000000000      2.769700000000000     -1.717400000000000
H       1.379600000000000      4.336900000000000     -1.827900000000000
