89

O      -8.670299999999999     -2.086800000000000     -0.756100000000000
N       3.755000000000000      1.915800000000000      0.191000000000000
C      -3.439900000000000      1.315000000000000      0.227600000000000
C      -2.327200000000000      0.229400000000000      0.481500000000000
C      -4.338600000000000      0.138800000000000     -0.272000000000000
C      -3.494200000000000     -0.786800000000000      0.639200000000000
C      -1.415200000000000      0.459200000000000      1.690900000000000
C      -3.256100000000000      2.500700000000000     -0.730700000000000
C      -5.817300000000000      0.225900000000000      0.050500000000000
C      -0.126100000000000     -0.397900000000000      1.605400000000000
C      -2.338000000000000      2.220200000000000     -1.925600000000000
C      -6.564100000000000     -0.969400000000000     -0.538600000000000
C       0.967800000000000      0.109400000000000      2.575000000000000
C      -0.441600000000000     -1.897300000000000      1.840300000000000
C      -0.869600000000000      2.472000000000000     -1.568200000000000
C       1.422700000000000      1.558200000000000      2.308800000000000
C       0.737200000000000     -2.880900000000000      1.727900000000000
C      -8.045100000000000     -0.943000000000000     -0.190700000000000
C       0.111000000000000      1.732400000000000     -2.484500000000000
C       2.928800000000000      1.778800000000000      2.579100000000000
C       1.551800000000000     -2.701100000000000      0.447100000000000
C       1.476900000000000      1.649300000000000     -1.800200000000000
C       3.834900000000000      1.189800000000000      1.465600000000000
C       2.505700000000000      0.815500000000000     -2.562400000000000
C       3.578300000000000      0.179300000000000     -1.634300000000000
C       2.606300000000000     -3.795200000000000      0.248300000000000
C       3.212700000000000      3.267300000000000      2.810300000000000
C       4.456300000000000      1.220900000000000     -0.898400000000000
C       4.435700000000000     -0.808200000000000     -2.462200000000000
C       3.549400000000000     -3.456300000000000     -0.916400000000000
C       5.341200000000000     -1.755900000000000     -1.655200000000000
C       4.671600000000000     -2.499000000000000     -0.492800000000000
H      -3.823300000000000      1.721900000000000      1.178500000000000
H      -1.743000000000000      0.014300000000000     -0.423200000000000
H      -4.178500000000000     -0.074300000000000     -1.338900000000000
H      -3.313500000000000     -1.786700000000000      0.235500000000000
H      -3.871700000000000     -0.884700000000000      1.664000000000000
H      -1.144600000000000      1.520200000000000      1.706800000000000
H      -1.947500000000000      0.266300000000000      2.629900000000000
H      -2.872500000000000      3.362800000000000     -0.170800000000000
H      -4.243700000000000      2.797700000000000     -1.104800000000000
H      -5.978200000000000      0.279000000000000      1.133900000000000
H      -6.231100000000000      1.147000000000000     -0.377600000000000
H       0.268600000000000     -0.297000000000000      0.587900000000000
H      -2.604700000000000      2.895700000000000     -2.747700000000000
H      -2.488000000000000      1.201900000000000     -2.297800000000000
H      -6.444100000000000     -0.993500000000000     -1.629300000000000
H      -6.124400000000000     -1.907800000000000     -0.177300000000000
H       1.834500000000000     -0.554400000000000      2.519900000000000
H       0.602900000000000      0.037900000000000      3.607700000000000
H      -1.190600000000000     -2.219500000000000      1.109400000000000
H      -0.901600000000000     -2.022400000000000      2.828700000000000
H      -0.663200000000000      3.549100000000000     -1.605900000000000
H      -0.688100000000000      2.172300000000000     -0.532500000000000
H       1.190500000000000      1.862400000000000      1.284500000000000
H       0.834900000000000      2.215600000000000      2.962400000000000
H       0.336200000000000     -3.901400000000000      1.766300000000000
H       1.393200000000000     -2.777300000000000      2.600000000000000
H      -8.192000000000000     -0.967000000000000      0.893700000000000
H      -8.525200000000000     -0.046700000000000     -0.596000000000000
H      -0.253000000000000      0.716200000000000     -2.676500000000000
H       0.190300000000000      2.243400000000000     -3.450300000000000
H       3.184000000000000      1.259500000000000      3.513000000000000
H       2.047000000000000     -1.729900000000000      0.485300000000000
H       0.880700000000000     -2.687000000000000     -0.420500000000000
H       1.864300000000000      2.661400000000000     -1.636000000000000
H       1.322100000000000      1.190800000000000     -0.820400000000000
H       4.874200000000000      1.208100000000000      1.817800000000000
H       3.571100000000000      0.139100000000000      1.318600000000000
H       1.984100000000000      0.006200000000000     -3.089100000000000
H       2.984400000000000      1.432600000000000     -3.332300000000000
H       3.028700000000000     -0.404700000000000     -0.893700000000000
H       2.092400000000000     -4.738600000000000      0.027800000000000
H       3.182900000000000     -3.950100000000000      1.167700000000000
H       2.882100000000000      3.880800000000000      1.965800000000000
H       4.282600000000000      3.440900000000000      2.966000000000000
H       2.686100000000000      3.623100000000000      3.702600000000000
H       5.378800000000000      0.775100000000000     -0.511900000000000
H       4.773900000000000      1.974800000000000     -1.629800000000000
H       5.062100000000000     -0.243400000000000     -3.164800000000000
H       3.774800000000000     -1.424300000000000     -3.084400000000000
H       4.177800000000000      2.835300000000000      0.317800000000000
H      -9.612200000000000     -2.043500000000000     -0.518700000000000
H       4.009300000000000     -4.381700000000000     -1.284200000000000
H       2.962400000000000     -3.048500000000000     -1.745500000000000
H       6.188400000000000     -1.186300000000000     -1.255600000000000
H       5.774700000000000     -2.490200000000000     -2.345700000000000
H       4.315300000000000     -1.775500000000000      0.244800000000000
H       5.440200000000000     -3.084900000000000      0.028200000000000
