89

O       4.142800000000000      0.117600000000000      0.908900000000000
N      -2.222300000000000     -1.224400000000000      4.450100000000000
C       2.782100000000000     -0.238900000000000      0.610000000000000
C       2.897100000000000     -1.681000000000000     -0.134600000000000
C       2.411900000000000      2.400300000000000     -0.128300000000000
C       2.175000000000000      0.858400000000000     -0.333800000000000
C       1.340300000000000      3.228800000000000     -0.979500000000000
C       2.011300000000000     -0.331600000000000      1.974300000000000
C       1.496500000000000     -2.237400000000000     -0.511100000000000
C       3.772400000000000     -1.568500000000000     -1.414100000000000
C       3.617200000000000     -2.714300000000000      0.775800000000000
C       3.831600000000000      2.770400000000000     -0.637500000000000
C       2.348500000000000      2.869900000000000      1.338400000000000
C      -0.096500000000000      3.156400000000000     -0.386700000000000
C       0.476200000000000     -0.234600000000000      1.930500000000000
C       1.432600000000000     -3.522100000000000     -1.353900000000000
C       1.330500000000000      2.847300000000000     -2.470500000000000
C      -0.174400000000000     -0.891600000000000      3.152600000000000
C      -1.151600000000000      3.959800000000000     -1.159500000000000
C      -0.027000000000000     -3.928200000000000     -1.617500000000000
C      -1.708700000000000     -0.731300000000000      3.165200000000000
C      -2.480300000000000      4.094900000000000     -0.401300000000000
C      -0.685300000000000     -3.073400000000000     -2.706000000000000
C      -3.146900000000000      2.777100000000000      0.012200000000000
C      -2.416800000000000     -1.494800000000000      2.017700000000000
C      -2.215700000000000     -3.127400000000000     -2.692900000000000
C      -3.590900000000000      1.920200000000000     -1.178400000000000
C      -2.899800000000000     -2.517500000000000     -1.458800000000000
C      -3.299300000000000     -0.391900000000000     -0.127900000000000
C      -4.260800000000000      0.603700000000000     -0.752100000000000
C      -2.391600000000000     -1.116100000000000     -1.098400000000000
C      -3.298000000000000     -0.580000000000000      1.207200000000000
H       2.538500000000000      0.658900000000000     -1.345800000000000
H       1.101300000000000      0.674200000000000     -0.406900000000000
H       1.642200000000000      4.285300000000000     -0.931500000000000
H       2.366800000000000      0.452600000000000      2.654100000000000
H       2.304200000000000     -1.249100000000000      2.493200000000000
H       0.948200000000000     -1.455800000000000     -1.042200000000000
H       0.949000000000000     -2.452800000000000      0.412500000000000
H       4.064900000000000     -2.556000000000000     -1.789800000000000
H       3.241700000000000     -1.072800000000000     -2.232700000000000
H       4.700500000000000     -1.019100000000000     -1.226300000000000
H       3.865100000000000     -3.629800000000000      0.226600000000000
H       2.994500000000000     -3.022200000000000      1.621000000000000
H       4.559200000000000     -2.320800000000000      1.171400000000000
H       3.956400000000000      3.858100000000000     -0.693700000000000
H       4.036800000000000      2.360500000000000     -1.631000000000000
H       4.615600000000000      2.397300000000000      0.028200000000000
H       2.382200000000000      3.965000000000000      1.393600000000000
H       3.194500000000000      2.511300000000000      1.929600000000000
H       1.436200000000000      2.551000000000000      1.843100000000000
H      -0.082500000000000      3.538400000000000      0.639400000000000
H      -0.423700000000000      2.113800000000000     -0.336400000000000
H       0.074200000000000     -0.685700000000000      1.027300000000000
H       0.174700000000000      0.816700000000000      1.896100000000000
H       1.923000000000000     -4.338200000000000     -0.812400000000000
H       1.955600000000000     -3.398700000000000     -2.307700000000000
H       4.156800000000000      0.758600000000000      1.635900000000000
H       0.883900000000000      1.860800000000000     -2.631000000000000
H       2.334900000000000      2.843600000000000     -2.900900000000000
H       0.753700000000000      3.571600000000000     -3.054900000000000
H       0.089000000000000     -1.957000000000000      3.182400000000000
H       0.248000000000000     -0.434100000000000      4.057100000000000
H      -1.338700000000000      3.499500000000000     -2.135300000000000
H      -0.767200000000000      4.968500000000000     -1.354600000000000
H      -0.587900000000000     -3.878700000000000     -0.678300000000000
H      -0.051700000000000     -4.976600000000000     -1.939400000000000
H      -1.935900000000000      0.341400000000000      3.113000000000000
H      -3.178400000000000      4.674300000000000     -1.017900000000000
H      -2.305100000000000      4.688500000000000      0.504900000000000
H      -0.334600000000000     -3.434100000000000     -3.681700000000000
H      -0.361900000000000     -2.030100000000000     -2.649900000000000
H      -4.029400000000000      3.017500000000000      0.618700000000000
H      -2.472900000000000      2.214500000000000      0.665900000000000
H      -3.065800000000000     -2.284100000000000      2.420700000000000
H      -1.690600000000000     -2.020300000000000      1.390800000000000
H      -2.546700000000000     -4.167100000000000     -2.803500000000000
H      -2.577900000000000     -2.593500000000000     -3.580900000000000
H      -2.739100000000000      1.708800000000000     -1.832900000000000
H      -4.309500000000000      2.494500000000000     -1.776200000000000
H      -2.772200000000000     -3.186600000000000     -0.599800000000000
H      -3.978800000000000     -2.483000000000000     -1.657800000000000
H      -4.723600000000000      0.136700000000000     -1.631000000000000
H      -5.089300000000000      0.826900000000000     -0.067600000000000
H      -2.288100000000000     -0.522600000000000     -2.014500000000000
H      -1.383800000000000     -1.178600000000000     -0.680000000000000
H      -4.016500000000000     -0.013100000000000      1.798800000000000
H      -1.803500000000000     -0.693600000000000      5.212800000000000
H      -3.226400000000000     -1.056200000000000      4.502200000000000
