90

N       3.112800000000000     -1.887000000000000      0.095000000000000
N      -1.994900000000000      2.034700000000000      0.404000000000000
C       2.080900000000000     -1.045400000000000      0.726500000000000
C       2.645500000000000     -3.247400000000000     -0.127900000000000
C       3.294500000000000      1.004400000000000     -0.225000000000000
C       2.670700000000000      0.349600000000000      1.019500000000000
C       4.305400000000000      0.051100000000000     -0.905900000000000
C       3.647900000000000     -1.322600000000000     -1.147600000000000
C       0.758200000000000     -0.924600000000000     -0.048300000000000
C      -1.705400000000000     -0.428200000000000      0.109200000000000
C       3.851200000000000     -4.151300000000000     -0.465000000000000
C       2.564300000000000     -3.985900000000000      1.225800000000000
C      -0.385800000000000     -0.554400000000000      0.884000000000000
C      -2.918600000000000     -0.697200000000000      1.029100000000000
C       3.243400000000000     -5.179500000000000      0.516300000000000
C      -1.811900000000000      0.950700000000000     -0.571600000000000
C       3.889900000000000      2.368800000000000      0.124100000000000
C      -3.182200000000000      0.504800000000000      1.949500000000000
C      -3.216800000000000      1.835600000000000      1.193800000000000
C       5.621900000000000     -0.109100000000000     -0.132200000000000
C      -4.169200000000000     -1.049300000000000      0.214000000000000
C      -2.027300000000000      3.332100000000000     -0.270700000000000
C       4.543800000000000      3.007700000000000     -1.093600000000000
C      -4.080600000000000     -2.469500000000000     -0.341400000000000
C      -3.429400000000000      3.641900000000000     -0.828300000000000
C      -1.591100000000000      4.441300000000000      0.704300000000000
C      -5.343200000000000     -2.899100000000000     -1.111400000000000
C       5.114300000000000      4.375000000000000     -0.752700000000000
C      -3.516900000000000      4.974600000000000     -1.561100000000000
C      -0.198000000000000      4.223400000000000      1.282400000000000
C      -5.213600000000000     -4.300000000000000     -1.710900000000000
C      -6.559800000000000     -2.845300000000000     -0.183900000000000
H       1.857600000000000     -1.485300000000000      1.707500000000000
H       1.802200000000000     -3.406300000000000     -0.807600000000000
H       2.489700000000000      1.191000000000000     -0.948500000000000
H       3.436400000000000      0.249200000000000      1.800500000000000
H       1.909500000000000      1.015800000000000      1.440400000000000
H       4.555200000000000      0.444000000000000     -1.899400000000000
H       2.852000000000000     -1.219100000000000     -1.897200000000000
H       4.403700000000000     -1.975700000000000     -1.599300000000000
H       0.485400000000000     -1.876300000000000     -0.512600000000000
H       0.844700000000000     -0.209600000000000     -0.870700000000000
H      -1.688800000000000     -1.182100000000000     -0.684900000000000
H       4.837500000000000     -3.798200000000000     -0.137000000000000
H       3.922100000000000     -4.487200000000000     -1.503400000000000
H       1.555300000000000     -4.178500000000000      1.601000000000000
H       3.174000000000000     -3.576700000000000      2.041400000000000
H      -0.477200000000000     -1.351700000000000      1.633000000000000
H      -0.170000000000000      0.363900000000000      1.438300000000000
H      -2.701500000000000     -1.555900000000000      1.678600000000000
H       3.959000000000000     -5.746500000000000      1.116600000000000
H       2.537500000000000     -5.874600000000000      0.047200000000000
H      -0.900100000000000      1.132200000000000     -1.152500000000000
H      -2.631800000000000      0.929500000000000     -1.299100000000000
H       3.092700000000000      3.024800000000000      0.496600000000000
H       4.618500000000000      2.278500000000000      0.938700000000000
H      -2.387700000000000      0.552400000000000      2.706100000000000
H      -4.118600000000000      0.368900000000000      2.504000000000000
H      -4.123200000000000      1.795300000000000      0.579700000000000
H      -3.342400000000000      2.629900000000000      1.937900000000000
H       6.282700000000000     -0.813900000000000     -0.649400000000000
H       5.460600000000000     -0.494100000000000      0.879400000000000
H       6.170200000000000      0.832600000000000     -0.047400000000000
H      -5.032800000000000     -0.977500000000000      0.883200000000000
H      -4.344000000000000     -0.338200000000000     -0.599800000000000
H      -1.305900000000000      3.344200000000000     -1.099300000000000
H       5.367200000000000      2.405400000000000     -1.485900000000000
H       3.808400000000000      3.117900000000000     -1.899300000000000
H      -3.228600000000000     -2.560000000000000     -1.023100000000000
H      -3.899700000000000     -3.176600000000000      0.478600000000000
H      -4.186500000000000      3.717100000000000     -0.039700000000000
H      -3.746700000000000      2.858300000000000     -1.526000000000000
H      -1.560500000000000      5.402700000000000      0.179100000000000
H      -2.307200000000000      4.562200000000000      1.525200000000000
H      -5.508400000000000     -2.196400000000000     -1.938100000000000
H       4.329800000000000      5.050400000000000     -0.396400000000000
H       5.572700000000000      4.826500000000000     -1.638200000000000
H       5.881400000000000      4.298100000000000      0.024600000000000
H      -2.731100000000000      5.061200000000000     -2.318000000000000
H      -4.483400000000000      5.056800000000000     -2.069800000000000
H      -3.441700000000000      5.824400000000000     -0.876500000000000
H      -0.161000000000000      3.336700000000000      1.922800000000000
H       0.543600000000000      4.105700000000000      0.485700000000000
H       0.094800000000000      5.084500000000000      1.891800000000000
H      -4.357600000000000     -4.350200000000000     -2.391900000000000
H      -6.110200000000000     -4.567300000000000     -2.280000000000000
H      -5.068800000000000     -5.053400000000000     -0.929200000000000
H      -6.828800000000000     -1.817400000000000      0.075900000000000
H      -7.437900000000000     -3.279400000000000     -0.675400000000000
H      -6.385600000000000     -3.405300000000000      0.741100000000000
