90

N      -0.544900000000000      0.119400000000000     -0.446800000000000
N       0.761600000000000     -0.405000000000000     -0.275200000000000
C      -2.838000000000000      0.256600000000000      0.389600000000000
C      -1.484100000000000     -0.458100000000000      0.508500000000000
C      -2.659200000000000      1.765900000000000      0.650200000000000
C      -3.830700000000000     -0.393700000000000      1.371200000000000
C       1.854900000000000      0.549800000000000     -0.363700000000000
C      -3.068700000000000      2.664100000000000     -0.522500000000000
C      -5.271900000000000      0.117200000000000      1.283100000000000
C       1.331200000000000      1.933700000000000      0.062700000000000
C       2.425500000000000      0.505400000000000     -1.791800000000000
C      -0.929200000000000     -0.349600000000000      1.925900000000000
C      -4.578200000000000      2.856000000000000     -0.695600000000000
C      -5.955800000000000     -0.194500000000000     -0.050100000000000
C       1.425900000000000      2.161500000000000      1.578600000000000
C       3.671000000000000      1.373300000000000     -2.035300000000000
C      -5.268300000000000      1.790500000000000     -1.553800000000000
C      -6.397700000000000      1.034500000000000     -0.848500000000000
C       0.990800000000000     -1.751200000000000     -0.147800000000000
C      -0.993000000000000     -0.004100000000000     -1.829300000000000
C       2.649500000000000      2.960100000000000      2.063400000000000
C       4.864800000000000      1.045000000000000     -1.126200000000000
C       4.019300000000000      2.413000000000000      1.642000000000000
C       5.511900000000000      2.266700000000000     -0.458800000000000
C       4.583300000000000      3.125300000000000      0.406200000000000
C       2.260800000000000     -2.126500000000000      0.592200000000000
C       0.184400000000000     -2.728300000000000     -0.608400000000000
C       3.442500000000000     -2.327700000000000     -0.361200000000000
C       0.396200000000000     -4.211200000000000     -0.474000000000000
C       4.713500000000000     -2.678200000000000      0.397000000000000
C      -0.739800000000000     -4.905100000000000      0.281900000000000
C      -0.527500000000000     -6.404800000000000      0.436500000000000
H      -3.236300000000000      0.095900000000000     -0.613500000000000
H      -1.693300000000000     -1.514300000000000      0.323200000000000
H       2.649500000000000      0.291400000000000      0.327400000000000
H      -1.622100000000000      2.027100000000000      0.872000000000000
H      -3.213000000000000      2.076300000000000      1.544600000000000
H      -3.839300000000000     -1.481400000000000      1.223400000000000
H      -3.513700000000000     -0.220300000000000      2.405900000000000
H      -2.649800000000000      3.657600000000000     -0.310000000000000
H      -2.615700000000000      2.355600000000000     -1.464500000000000
H      -5.838200000000000     -0.391700000000000      2.075000000000000
H      -5.328800000000000      1.179800000000000      1.532000000000000
H       0.324000000000000      2.175800000000000     -0.283700000000000
H       1.916800000000000      2.715300000000000     -0.423900000000000
H       1.660800000000000      0.910600000000000     -2.469400000000000
H       2.585000000000000     -0.503500000000000     -2.177200000000000
H      -1.545600000000000     -0.928500000000000      2.623000000000000
H       0.067600000000000     -0.775400000000000      2.060100000000000
H      -0.897300000000000      0.671500000000000      2.312400000000000
H      -4.713800000000000      3.816000000000000     -1.213200000000000
H      -5.065800000000000      2.986300000000000      0.275700000000000
H      -6.864200000000000     -0.769600000000000      0.175000000000000
H      -5.343500000000000     -0.851800000000000     -0.678000000000000
H       1.406300000000000      1.206800000000000      2.114100000000000
H       0.534300000000000      2.713000000000000      1.902100000000000
H       3.402800000000000      2.432000000000000     -1.991400000000000
H       3.984200000000000      1.214000000000000     -3.075900000000000
H      -4.556600000000000      1.093900000000000     -2.007600000000000
H      -5.728700000000000      2.317800000000000     -2.401100000000000
H      -6.988100000000000      1.711500000000000     -0.219800000000000
H      -7.082000000000000      0.674800000000000     -1.628700000000000
H      -0.190200000000000     -0.299100000000000     -2.514800000000000
H      -1.788500000000000     -0.742600000000000     -1.979600000000000
H      -1.346900000000000      0.957000000000000     -2.202800000000000
H       2.609700000000000      2.965600000000000      3.160600000000000
H       2.547000000000000      4.008200000000000      1.756100000000000
H       5.632200000000000      0.548800000000000     -1.734500000000000
H       4.615000000000000      0.328700000000000     -0.345200000000000
H       4.724300000000000      2.595200000000000      2.464400000000000
H       3.986900000000000      1.328000000000000      1.536200000000000
H       5.938000000000000      2.905100000000000     -1.243000000000000
H       6.356400000000000      1.925600000000000      0.152800000000000
H       5.159600000000000      3.992800000000000      0.755700000000000
H       3.793300000000000      3.554600000000000     -0.212300000000000
H       2.502400000000000     -1.392200000000000      1.370300000000000
H       2.111100000000000     -3.035900000000000      1.186300000000000
H      -0.693000000000000     -2.499100000000000     -1.202400000000000
H       3.220700000000000     -3.137800000000000     -1.066300000000000
H       3.680400000000000     -1.460100000000000     -0.954100000000000
H       0.443400000000000     -4.626500000000000     -1.489400000000000
H       1.349400000000000     -4.477800000000000     -0.012600000000000
H       4.992600000000000     -1.876000000000000      1.087700000000000
H       4.584300000000000     -3.599600000000000      0.973800000000000
H       5.543200000000000     -2.829600000000000     -0.300900000000000
H      -1.690200000000000     -4.733000000000000     -0.238100000000000
H      -0.840100000000000     -4.460200000000000      1.279800000000000
H       0.391500000000000     -6.613700000000000      0.993100000000000
H      -0.455700000000000     -6.891100000000000     -0.541500000000000
H      -1.364900000000000     -6.853000000000000      0.980200000000000
