90

N       6.381500000000000      1.669300000000000     -0.413600000000000
N      -6.139700000000000     -0.606600000000000     -0.745300000000000
C       2.973500000000000     -0.925600000000000      0.272300000000000
C       4.137700000000000      0.069400000000000      0.141300000000000
C       1.678000000000000     -0.169100000000000      0.559600000000000
C      -1.246800000000000     -0.106000000000000      1.083900000000000
C       3.904600000000000      1.195900000000000     -0.921300000000000
C       5.546200000000000     -0.633500000000000      0.003000000000000
C      -2.541500000000000      0.651800000000000      1.371500000000000
C       1.097300000000000     -0.585000000000000      1.917100000000000
C       0.657100000000000     -0.397300000000000     -0.562300000000000
C      -3.556700000000000      0.377300000000000      0.262200000000000
C      -0.225700000000000      0.121900000000000      2.205600000000000
C      -0.666200000000000      0.309500000000000     -0.273900000000000
C       5.094600000000000      2.204800000000000     -0.861900000000000
C       6.557800000000000      0.268500000000000     -0.751800000000000
C       3.270400000000000     -1.902700000000000      1.422300000000000
C       2.833600000000000     -1.715900000000000     -1.039500000000000
C      -4.861900000000000      1.136100000000000      0.522600000000000
C      -3.863700000000000     -1.120600000000000      0.167000000000000
C      -5.949500000000000      0.841400000000000     -0.531900000000000
C      -4.936500000000000     -1.448300000000000     -0.893200000000000
C       2.614300000000000      1.990500000000000     -0.602600000000000
C       3.730800000000000      0.644200000000000     -2.353300000000000
C       5.494600000000000     -1.992800000000000     -0.726300000000000
C       6.088700000000000     -0.903600000000000      1.429700000000000
C      -2.242100000000000      2.158300000000000      1.439600000000000
C      -3.110900000000000      0.187000000000000      2.722200000000000
C      -5.668500000000000      1.583200000000000     -1.850600000000000
C      -7.296200000000000      1.384300000000000      0.001700000000000
C      -5.396600000000000     -2.909100000000000     -0.676200000000000
C      -4.358200000000000     -1.377000000000000     -2.317600000000000
H       4.166200000000000      0.617400000000000      1.098200000000000
H       1.794700000000000      0.855000000000000      0.844100000000000
H      -1.421000000000000     -1.187900000000000      1.070400000000000
H       1.770300000000000     -0.344300000000000      2.748200000000000
H       0.845700000000000     -1.649900000000000      1.951200000000000
H       0.373400000000000     -1.455000000000000     -0.623800000000000
H       0.961200000000000     -0.084000000000000     -1.560100000000000
H      -3.178200000000000      0.739400000000000     -0.696600000000000
H      -0.590300000000000     -0.266000000000000      3.162300000000000
H       0.015300000000000      1.176400000000000      2.356700000000000
H      -0.491600000000000      1.387700000000000     -0.327800000000000
H      -1.336800000000000      0.047200000000000     -1.097300000000000
H       4.856900000000000      3.015900000000000     -0.162200000000000
H       5.233100000000000      2.692300000000000     -1.834600000000000
H       6.475300000000000      0.145700000000000     -1.838600000000000
H       7.585400000000000     -0.026300000000000     -0.506400000000000
H       4.065400000000000     -2.617500000000000      1.255500000000000
H       2.447100000000000     -2.608000000000000      1.579400000000000
H       3.495700000000000     -1.400400000000000      2.368600000000000
H       3.533300000000000     -2.484400000000000     -1.322700000000000
H       2.013300000000000     -2.431700000000000     -0.862100000000000
H       2.531800000000000     -1.233600000000000     -1.955100000000000
H      -5.292200000000000      0.867000000000000      1.490400000000000
H      -4.694800000000000      2.218600000000000      0.540300000000000
H      -2.972500000000000     -1.702600000000000     -0.086400000000000
H      -4.226900000000000     -1.498000000000000      1.129500000000000
H       1.669700000000000      1.653100000000000     -1.000300000000000
H       2.701100000000000      2.922400000000000     -1.191400000000000
H       2.594200000000000      2.406300000000000      0.412700000000000
H       4.333300000000000     -0.231300000000000     -2.584300000000000
H       4.075600000000000      1.400000000000000     -3.073100000000000
H       2.692600000000000      0.504400000000000     -2.658200000000000
H       5.258100000000000     -1.907000000000000     -1.790100000000000
H       6.542900000000000     -2.336600000000000     -0.780100000000000
H       5.046800000000000     -2.856400000000000     -0.245200000000000
H       7.158600000000000     -1.146600000000000      1.380100000000000
H       6.012200000000000     -0.014000000000000      2.065300000000000
H       5.653000000000000     -1.740600000000000      1.968800000000000
H      -2.030100000000000      2.594600000000000      0.458300000000000
H      -3.105000000000000      2.706800000000000      1.836700000000000
H      -1.433000000000000      2.434400000000000      2.116800000000000
H      -3.143300000000000     -0.902700000000000      2.820600000000000
H      -2.489100000000000      0.549200000000000      3.550200000000000
H      -4.098300000000000      0.582000000000000      2.963700000000000
H       7.138500000000000      2.229000000000000     -0.803600000000000
H      -6.681400000000000     -0.970300000000000      0.040500000000000
H      -6.380900000000000      1.289000000000000     -2.630300000000000
H      -5.768800000000000      2.667100000000000     -1.715300000000000
H      -4.662100000000000      1.417700000000000     -2.236200000000000
H      -7.586100000000000      0.900100000000000      0.942100000000000
H      -7.239000000000000      2.462000000000000      0.195000000000000
H      -8.106500000000000      1.219700000000000     -0.718800000000000
H      -4.554800000000000     -3.606000000000000     -0.764600000000000
H      -5.834700000000000     -3.053300000000000      0.318800000000000
H      -6.150200000000000     -3.204600000000000     -1.416200000000000
H      -3.830100000000000     -0.445400000000000     -2.523500000000000
H      -3.631100000000000     -2.181700000000000     -2.482600000000000
H      -5.145100000000000     -1.494200000000000     -3.071900000000000
