90

N       2.112200000000000      0.842100000000000     -0.399000000000000
N      -0.460300000000000     -2.918200000000000      1.166000000000000
C      -2.102000000000000      0.030600000000000     -0.687400000000000
C      -1.290800000000000     -0.744700000000000      0.379400000000000
C      -3.459400000000000     -0.608200000000000     -0.984500000000000
C       0.864400000000000      0.132900000000000     -0.686500000000000
C      -1.306800000000000      0.231500000000000     -1.986600000000000
C       0.069700000000000     -0.059600000000000      0.611200000000000
C       0.042200000000000      0.899900000000000     -1.726800000000000
C      -4.265100000000000      0.234600000000000     -2.002500000000000
C      -4.174500000000000     -0.944400000000000      0.338900000000000
C      -1.106500000000000     -2.233200000000000      0.060200000000000
C       3.097300000000000     -0.068400000000000      0.194700000000000
C      -4.464300000000000      1.737200000000000     -1.739900000000000
C      -5.453200000000000     -1.771500000000000      0.181700000000000
C       4.120900000000000      0.675500000000000      1.107900000000000
C       3.758800000000000     -0.886300000000000     -0.939100000000000
C      -5.305000000000000      2.142300000000000     -0.527500000000000
C      -6.324900000000000     -1.783700000000000      1.445600000000000
C       4.810900000000000      1.874600000000000      0.414900000000000
C       4.527800000000000     -2.119900000000000     -0.437000000000000
C       3.454900000000000      1.131500000000000      2.415400000000000
C      -6.751600000000000      1.643400000000000     -0.581800000000000
C      -7.458800000000000     -0.745800000000000      1.440000000000000
C       6.096000000000000      2.380400000000000      1.083200000000000
C      -7.471400000000000      1.739200000000000      0.767400000000000
C      -7.040500000000000      0.687100000000000      1.800000000000000
C       5.958600000000000     -2.268800000000000     -0.976500000000000
C       7.236100000000000      1.376700000000000      1.302600000000000
C       7.000500000000000     -1.437600000000000     -0.215400000000000
C       7.994900000000000      0.916200000000000      0.049700000000000
C       7.289800000000000     -0.085300000000000     -0.868000000000000
H      -2.277400000000000      1.026000000000000     -0.255600000000000
H      -1.803300000000000     -0.655700000000000      1.346100000000000
H      -3.288200000000000     -1.567600000000000     -1.492600000000000
H       1.069000000000000     -0.849500000000000     -1.122700000000000
H      -1.837100000000000      0.871900000000000     -2.696700000000000
H      -1.146800000000000     -0.730700000000000     -2.488300000000000
H       0.636900000000000     -0.585000000000000      1.383400000000000
H      -0.129400000000000      0.932800000000000      1.043500000000000
H       0.597000000000000      0.967800000000000     -2.671000000000000
H      -0.129300000000000      1.929800000000000     -1.386200000000000
H      -5.241300000000000     -0.229500000000000     -2.170600000000000
H      -3.784700000000000      0.140100000000000     -2.985300000000000
H      -3.554600000000000     -1.553500000000000      1.000300000000000
H      -4.363300000000000     -0.033800000000000      0.900600000000000
H      -0.523700000000000     -2.387500000000000     -0.853100000000000
H      -2.064900000000000     -2.731400000000000     -0.102300000000000
H       2.493900000000000      1.248600000000000     -1.252600000000000
H       2.602800000000000     -0.798200000000000      0.846000000000000
H      -4.944600000000000      2.161300000000000     -2.632300000000000
H      -3.493700000000000      2.240500000000000     -1.673900000000000
H      -5.149700000000000     -2.804000000000000     -0.037600000000000
H      -6.055000000000000     -1.456000000000000     -0.672100000000000
H       4.881600000000000     -0.054300000000000      1.392600000000000
H       4.395900000000000     -0.244900000000000     -1.552300000000000
H       3.006700000000000     -1.263700000000000     -1.641700000000000
H      -5.330700000000000      3.239700000000000     -0.486700000000000
H      -4.801400000000000      1.844200000000000      0.391700000000000
H      -5.716100000000000     -1.690700000000000      2.352400000000000
H      -6.802900000000000     -2.771000000000000      1.497300000000000
H       4.106000000000000      2.716900000000000      0.383500000000000
H       5.019600000000000      1.658100000000000     -0.632900000000000
H       0.524100000000000     -2.659600000000000      1.211800000000000
H      -0.467000000000000     -3.922500000000000      0.989200000000000
H       3.964400000000000     -3.005400000000000     -0.762200000000000
H       4.537100000000000     -2.176500000000000      0.657400000000000
H       2.695400000000000      1.899000000000000      2.233300000000000
H       4.191700000000000      1.541900000000000      3.112600000000000
H       2.968500000000000      0.287900000000000      2.916900000000000
H      -6.814800000000000      0.620900000000000     -0.954200000000000
H      -7.295100000000000      2.260200000000000     -1.309000000000000
H      -8.191300000000000     -1.067900000000000      2.192500000000000
H      -7.992400000000000     -0.783100000000000      0.483300000000000
H       5.832100000000000      2.804500000000000      2.060000000000000
H       6.479400000000000      3.222700000000000      0.493200000000000
H      -8.551000000000000      1.641700000000000      0.597700000000000
H      -7.314100000000000      2.739000000000000      1.190300000000000
H      -5.971500000000000      0.762000000000000      2.007800000000000
H      -7.532800000000000      0.947400000000000      2.746800000000000
H       5.995300000000000     -2.069700000000000     -2.053700000000000
H       6.234800000000000     -3.324000000000000     -0.849400000000000
H       6.900600000000000      0.526600000000000      1.901700000000000
H       7.974600000000000      1.889100000000000      1.935300000000000
H       7.943600000000000     -1.999700000000000     -0.196300000000000
H       6.697000000000000     -1.336000000000000      0.829200000000000
H       8.269200000000000      1.798800000000000     -0.541500000000000
H       8.941100000000000      0.465000000000000      0.376100000000000
H       6.390600000000000      0.359400000000000     -1.282600000000000
H       7.939400000000000     -0.263400000000000     -1.735600000000000
