90

O       7.583100000000000     -0.548200000000000     -0.892400000000000
O      -8.626799999999999      0.985100000000000     -1.369700000000000
C       1.894100000000000     -0.470900000000000      0.173800000000000
C       3.398900000000000     -0.414100000000000     -0.214500000000000
C       2.960900000000000     -1.131900000000000      1.033400000000000
C       1.238800000000000      0.776900000000000      0.821700000000000
C       4.138100000000000      0.931600000000000     -0.146500000000000
C      -0.285400000000000      0.857100000000000      0.547700000000000
C       0.992900000000000     -1.407400000000000     -0.644300000000000
C      -0.931800000000000     -0.538500000000000      0.831700000000000
C       3.933600000000000     -1.284200000000000     -1.339800000000000
C       1.994600000000000      2.068200000000000      0.483300000000000
C       3.478000000000000      1.931300000000000      0.814700000000000
C      -0.494600000000000     -1.512100000000000     -0.262100000000000
C       5.686000000000000      0.737200000000000      0.051300000000000
C      -2.444700000000000     -0.188900000000000      0.832900000000000
C      -1.072600000000000      1.754800000000000      1.525800000000000
C       5.429200000000000     -1.521700000000000     -1.172100000000000
C       6.209500000000000     -0.209600000000000     -1.076800000000000
C      -2.503800000000000      1.183800000000000      1.539800000000000
C      -0.551900000000000      1.409100000000000     -0.887200000000000
C      -0.546900000000000     -1.162100000000000      2.207200000000000
C      -3.396500000000000     -1.207000000000000      1.451100000000000
C       6.040000000000000      0.178300000000000      1.446100000000000
C       6.410300000000000      2.099500000000000     -0.081900000000000
C      -4.873600000000000     -0.762300000000000      1.385700000000000
C      -3.236400000000000     -2.558800000000000      0.746200000000000
C       8.197300000000000     -0.901900000000000     -2.121900000000000
C      -5.362300000000000     -0.477400000000000     -0.042700000000000
C      -6.862100000000000     -0.100300000000000     -0.123500000000000
C      -7.210800000000000      0.744900000000000     -1.392000000000000
C      -7.755300000000000     -1.348800000000000     -0.005600000000000
C      -6.920400000000000     -0.019000000000000     -2.691500000000000
C      -6.509400000000000      2.107700000000000     -1.428000000000000
H       3.199300000000000     -0.700100000000000      1.998700000000000
H       3.009400000000000     -2.215900000000000      1.054300000000000
H       1.353600000000000      0.660300000000000      1.908900000000000
H       4.015300000000000      1.373400000000000     -1.148400000000000
H       1.055700000000000     -1.094400000000000     -1.694400000000000
H       1.397400000000000     -2.427200000000000     -0.627100000000000
H       3.735800000000000     -0.792700000000000     -2.300200000000000
H       3.440000000000000     -2.260500000000000     -1.377200000000000
H       1.574800000000000      2.903300000000000      1.056200000000000
H       1.899600000000000      2.322400000000000     -0.578100000000000
H       3.939700000000000      2.918500000000000      0.708400000000000
H       3.598800000000000      1.632300000000000      1.861000000000000
H      -1.088700000000000     -1.366000000000000     -1.173500000000000
H      -0.675100000000000     -2.551000000000000      0.030300000000000
H      -2.742800000000000     -0.047500000000000     -0.210900000000000
H      -1.070800000000000      2.811500000000000      1.237000000000000
H      -0.650300000000000      1.708200000000000      2.536600000000000
H       5.618700000000000     -2.137100000000000     -0.283800000000000
H       5.772100000000000     -2.124300000000000     -2.019500000000000
H       6.093700000000000      0.329400000000000     -2.028800000000000
H      -2.852500000000000      1.106700000000000      2.575800000000000
H      -3.191500000000000      1.853700000000000      1.011400000000000
H       0.025900000000000      0.887700000000000     -1.653800000000000
H      -0.282800000000000      2.469800000000000     -0.953100000000000
H      -1.602100000000000      1.357300000000000     -1.184500000000000
H      -0.826200000000000     -0.517300000000000      3.046500000000000
H       0.523600000000000     -1.356900000000000      2.298000000000000
H      -1.021200000000000     -2.130900000000000      2.379300000000000
H      -3.171600000000000     -1.348500000000000      2.515400000000000
H       5.676400000000000      0.830800000000000      2.246300000000000
H       5.623800000000000     -0.817900000000000      1.614400000000000
H       7.125500000000000      0.097000000000000      1.575700000000000
H       7.498900000000000      1.972900000000000     -0.073800000000000
H       6.143600000000000      2.598400000000000     -1.020200000000000
H       6.163700000000000      2.775500000000000      0.743300000000000
H      -5.496600000000000     -1.539800000000000      1.843500000000000
H      -5.016400000000000      0.136200000000000      1.998000000000000
H      -3.168600000000000     -2.460900000000000     -0.341800000000000
H      -4.099200000000000     -3.202700000000000      0.956000000000000
H      -2.374100000000000     -3.120200000000000      1.107200000000000
H       9.265000000000001     -1.045900000000000     -1.931400000000000
H       7.806200000000000     -1.841000000000000     -2.519800000000000
H       8.095200000000000     -0.100800000000000     -2.860900000000000
H      -4.773700000000000      0.349800000000000     -0.442200000000000
H      -5.176000000000000     -1.340400000000000     -0.691100000000000
H      -7.105000000000000      0.528700000000000      0.744900000000000
H      -7.543300000000000     -2.075600000000000     -0.795700000000000
H      -7.589600000000000     -1.852300000000000      0.952400000000000
H      -8.818600000000000     -1.094000000000000     -0.048600000000000
H      -7.201800000000000      0.584200000000000     -3.563300000000000
H      -5.861100000000000     -0.274000000000000     -2.790900000000000
H      -7.513200000000000     -0.936500000000000     -2.763800000000000
H      -6.917000000000000      2.734900000000000     -2.229700000000000
H      -5.431000000000000      2.025000000000000     -1.587500000000000
H      -6.683100000000000      2.654000000000000     -0.494100000000000
H      -8.860099999999999      1.497700000000000     -2.162400000000000
