90

N      -3.503700000000000     -0.650600000000000     -1.118900000000000
N      -0.556800000000000      2.491800000000000      0.252400000000000
C      -2.384700000000000      1.551000000000000      1.557700000000000
C      -4.101200000000000     -0.512000000000000      0.217100000000000
C      -3.407800000000000      1.941300000000000      0.483400000000000
C      -1.889700000000000      0.113700000000000      1.352000000000000
C      -1.211500000000000      2.529400000000000      1.565800000000000
C      -4.567400000000000      0.943900000000000      0.419000000000000
C      -3.052300000000000     -0.880000000000000      1.285800000000000
C      -5.301600000000000     -1.464700000000000      0.311000000000000
C      -0.196800000000000      2.133900000000000      2.647400000000000
C      -1.713200000000000      3.957200000000000      1.816800000000000
C      -3.477500000000000     -2.049900000000000     -1.533300000000000
C       0.798500000000000      3.006400000000000      0.344100000000000
C      -2.416900000000000     -2.258300000000000     -2.616300000000000
C       1.293000000000000      3.435500000000000     -1.039000000000000
C      -0.985400000000000     -1.891000000000000     -2.161300000000000
C       1.319400000000000      2.285600000000000     -2.072400000000000
C      -0.538800000000000     -2.735800000000000     -0.947100000000000
C       2.114900000000000      1.068700000000000     -1.549300000000000
C      -0.031200000000000     -2.064800000000000     -3.348900000000000
C       1.903900000000000      2.817500000000000     -3.386500000000000
C       0.875100000000000     -2.445600000000000     -0.419900000000000
C       3.611000000000000      1.311600000000000     -1.297200000000000
C       1.268300000000000     -3.351000000000000      0.713900000000000
C       4.334300000000000      0.068800000000000     -0.858500000000000
C       1.700700000000000     -3.012400000000000      1.943200000000000
C       5.086100000000000     -0.116400000000000      0.243200000000000
C       1.895100000000000     -1.610300000000000      2.446100000000000
C       2.038000000000000     -4.080800000000000      2.950000000000000
C       5.724600000000000     -1.454200000000000      0.509900000000000
C       5.373800000000000      0.921800000000000      1.289900000000000
H      -2.892100000000000      1.592900000000000      2.532500000000000
H      -2.955300000000000      2.000900000000000     -0.512400000000000
H      -3.843400000000000      2.923600000000000      0.694200000000000
H      -1.251000000000000     -0.202300000000000      2.183600000000000
H      -1.289500000000000      0.022600000000000      0.440600000000000
H      -5.258400000000000      1.243000000000000     -0.380100000000000
H      -5.137300000000000      1.017900000000000      1.355300000000000
H      -3.547300000000000     -0.875400000000000      2.268100000000000
H      -2.675600000000000     -1.899100000000000      1.176100000000000
H      -6.001800000000000     -1.326500000000000     -0.521900000000000
H      -5.872300000000000     -1.250000000000000      1.224100000000000
H      -5.037800000000000     -2.524800000000000      0.384300000000000
H      -4.031900000000000     -0.113100000000000     -1.805800000000000
H       0.521800000000000      2.927400000000000      2.883600000000000
H      -0.718000000000000      1.929700000000000      3.591900000000000
H       0.372400000000000      1.230300000000000      2.403800000000000
H      -0.894700000000000      4.654200000000000      2.029200000000000
H      -2.261300000000000      4.376700000000000      0.966000000000000
H      -2.379400000000000      3.987100000000000      2.687300000000000
H      -1.092300000000000      3.036900000000000     -0.421900000000000
H      -4.444900000000000     -2.336900000000000     -1.964200000000000
H      -3.261200000000000     -2.755900000000000     -0.727100000000000
H       0.858000000000000      3.916100000000000      0.952500000000000
H       1.494800000000000      2.280300000000000      0.773700000000000
H      -2.682900000000000     -1.658400000000000     -3.496900000000000
H      -2.443300000000000     -3.307700000000000     -2.937300000000000
H       2.293600000000000      3.872900000000000     -0.932700000000000
H       0.654000000000000      4.243200000000000     -1.421300000000000
H      -0.957100000000000     -0.831900000000000     -1.877500000000000
H       0.292800000000000      1.954300000000000     -2.273400000000000
H      -0.603500000000000     -3.798200000000000     -1.219600000000000
H      -1.225200000000000     -2.598300000000000     -0.113600000000000
H       1.647500000000000      0.669400000000000     -0.644500000000000
H       2.021700000000000      0.270100000000000     -2.296900000000000
H       0.970400000000000     -1.691500000000000     -3.121500000000000
H       0.054200000000000     -3.118000000000000     -3.637400000000000
H      -0.389700000000000     -1.504400000000000     -4.219300000000000
H       1.246000000000000      3.583700000000000     -3.811400000000000
H       1.996200000000000      2.013700000000000     -4.124300000000000
H       2.889400000000000      3.273000000000000     -3.247900000000000
H       0.923800000000000     -1.393800000000000     -0.136500000000000
H       1.611900000000000     -2.597000000000000     -1.215700000000000
H       4.091600000000000      1.645200000000000     -2.223600000000000
H       3.730700000000000      2.121600000000000     -0.576100000000000
H       1.190400000000000     -4.412400000000000      0.479400000000000
H       4.221900000000000     -0.772600000000000     -1.541900000000000
H       2.918400000000000     -1.481700000000000      2.814900000000000
H       1.734000000000000     -0.844700000000000      1.685200000000000
H       1.204500000000000     -1.408100000000000      3.271500000000000
H       1.878300000000000     -5.090800000000000      2.558100000000000
H       1.414300000000000     -3.969600000000000      3.843100000000000
H       3.089000000000000     -4.002700000000000      3.247300000000000
H       5.492000000000000     -2.191000000000000     -0.266300000000000
H       5.372100000000000     -1.858100000000000      1.464700000000000
H       6.813800000000000     -1.352400000000000      0.555500000000000
H       6.454800000000000      1.072300000000000      1.381500000000000
H       4.929700000000000      1.896300000000000      1.080300000000000
H       4.989900000000000      0.590500000000000      2.260600000000000
