90

N       0.583500000000000      0.084500000000000     -0.478800000000000
N       0.417600000000000      2.335200000000000     -1.173500000000000
C      -0.317900000000000      1.250900000000000     -0.517800000000000
C       0.136600000000000     -0.871000000000000      0.541200000000000
C       1.963800000000000      0.514500000000000     -0.214800000000000
C      -1.578600000000000      0.846500000000000     -1.337500000000000
C      -0.596700000000000      1.606300000000000      0.974700000000000
C       0.812500000000000     -2.236300000000000      0.291200000000000
C      -1.403400000000000     -0.908500000000000      0.541800000000000
C       1.960300000000000      1.519100000000000      0.949600000000000
C       2.563200000000000      1.085400000000000     -1.514000000000000
C      -2.335300000000000      1.993300000000000     -2.032000000000000
C      -1.718500000000000      2.613700000000000      1.275200000000000
C       0.429100000000000     -2.930100000000000     -1.028100000000000
C      -2.017100000000000     -1.750200000000000      1.670700000000000
C       3.326400000000000      2.056800000000000      1.410500000000000
C       3.453000000000000      0.100000000000000     -2.286900000000000
C      -3.830600000000000      1.737100000000000     -2.246300000000000
C      -3.023300000000000      1.907200000000000      1.666500000000000
C       0.049900000000000     -4.410100000000000     -0.879500000000000
C      -3.385000000000000     -2.333100000000000      1.294500000000000
C       4.184900000000000      1.131800000000000      2.277700000000000
C       4.610000000000000     -0.527000000000000     -1.494200000000000
C      -4.684100000000000      1.689300000000000     -0.971800000000000
C      -4.300500000000000      2.699300000000000      1.375700000000000
C      -4.604600000000000      2.956600000000000     -0.106000000000000
C      -1.120100000000000     -4.703900000000000      0.065600000000000
C      -3.384500000000000     -3.794500000000000      0.811300000000000
C       4.817000000000000     -0.122500000000000      1.666700000000000
C       5.523600000000000      0.483000000000000     -0.789600000000000
C      -2.463500000000000     -4.108600000000000     -0.374200000000000
C       5.932500000000000      0.085200000000000      0.632100000000000
H       0.479700000000000     -0.626200000000000      1.552900000000000
H       2.565700000000000     -0.329800000000000      0.085100000000000
H      -2.408700000000000      0.344200000000000     -0.871900000000000
H      -1.262200000000000      0.175600000000000     -2.152400000000000
H       0.117700000000000      2.310800000000000      1.371900000000000
H      -0.629300000000000      0.882300000000000      1.789500000000000
H       0.591700000000000     -2.885800000000000      1.143000000000000
H       1.904700000000000     -2.167200000000000      0.326900000000000
H      -1.918600000000000     -0.019500000000000      0.737400000000000
H      -1.740100000000000     -1.370000000000000     -0.386300000000000
H       1.615600000000000      2.500900000000000      0.632100000000000
H       1.538300000000000      1.112600000000000      1.871600000000000
H       1.844800000000000      1.278000000000000     -2.312800000000000
H       3.103100000000000      2.023000000000000     -1.355600000000000
H      -1.886300000000000      2.135400000000000     -3.024700000000000
H      -2.195300000000000      2.947200000000000     -1.525500000000000
H      -1.853000000000000      3.315400000000000      0.452400000000000
H      -1.441500000000000      3.246800000000000      2.132400000000000
H       0.054800000000000      3.237000000000000     -0.864800000000000
H       0.238100000000000      2.318800000000000     -2.177400000000000
H      -0.364600000000000     -2.402000000000000     -1.561700000000000
H       1.296100000000000     -2.874900000000000     -1.700300000000000
H      -1.353300000000000     -2.542900000000000      2.017900000000000
H      -2.148100000000000     -1.097900000000000      2.545600000000000
H       3.911900000000000      2.453700000000000      0.580700000000000
H       3.120200000000000      2.935900000000000      2.040900000000000
H       2.832200000000000     -0.713800000000000     -2.683800000000000
H       3.870600000000000      0.620800000000000     -3.158500000000000
H      -3.964200000000000      0.799200000000000     -2.799400000000000
H      -4.223100000000000      2.532600000000000     -2.892600000000000
H      -2.982400000000000      1.708400000000000      2.745900000000000
H      -3.218400000000000      0.950300000000000      1.216500000000000
H      -0.182800000000000     -4.813300000000000     -1.872900000000000
H       0.928700000000000     -4.960600000000000     -0.521100000000000
H      -3.877100000000000     -1.700700000000000      0.545200000000000
H      -4.026700000000000     -2.293200000000000      2.184500000000000
H       4.995900000000000      1.737600000000000      2.703800000000000
H       3.577900000000000      0.814000000000000      3.135800000000000
H       4.219000000000000     -1.275800000000000     -0.800200000000000
H       5.221000000000000     -1.105300000000000     -2.200300000000000
H      -4.472000000000000      0.779900000000000     -0.405400000000000
H      -5.728800000000000      1.570800000000000     -1.290600000000000
H      -4.251900000000000      3.663200000000000      1.897000000000000
H      -5.149000000000000      2.157800000000000      1.813900000000000
H      -3.893500000000000      3.683800000000000     -0.506600000000000
H      -5.578000000000000      3.462800000000000     -0.156600000000000
H      -1.238900000000000     -5.794300000000000      0.124500000000000
H      -0.862000000000000     -4.400300000000000      1.082000000000000
H      -3.159500000000000     -4.458600000000000      1.654900000000000
H      -4.414500000000000     -4.029600000000000      0.512500000000000
H       4.057700000000000     -0.820100000000000      1.315500000000000
H       5.289300000000000     -0.651200000000000      2.507800000000000
H       6.442800000000000      0.571300000000000     -1.384600000000000
H       5.106800000000000      1.488600000000000     -0.787600000000000
H      -2.959000000000000     -4.866900000000000     -0.995600000000000
H      -2.358000000000000     -3.239900000000000     -1.024800000000000
H       6.497900000000000     -0.853600000000000      0.561500000000000
H       6.638700000000000      0.832300000000000      1.015300000000000
