90

N      -0.304600000000000     -1.338500000000000      0.529000000000000
N       0.218500000000000     -1.042000000000000     -0.560300000000000
C      -1.773400000000000     -1.284600000000000      0.447200000000000
C       1.687300000000000     -1.096500000000000     -0.479000000000000
C      -2.300500000000000     -0.224300000000000      1.427500000000000
C      -2.304600000000000     -2.704000000000000      0.715100000000000
C       2.290100000000000     -0.050400000000000     -1.430600000000000
C       2.114900000000000     -2.542500000000000     -0.786700000000000
C      -1.742000000000000      1.174900000000000      1.135700000000000
C      -3.824100000000000     -2.847000000000000      0.846100000000000
C       1.833800000000000      1.376900000000000     -1.099500000000000
C       3.620100000000000     -2.791200000000000     -0.923700000000000
C      -2.458200000000000      2.293800000000000      1.903600000000000
C      -4.609700000000000     -2.358100000000000     -0.373600000000000
C       2.629400000000000      2.462000000000000     -1.837300000000000
C       4.438300000000000     -2.394000000000000      0.307900000000000
C      -3.926900000000000      2.533100000000000      1.521000000000000
C      -6.118000000000000     -2.419200000000000     -0.104300000000000
C       4.111300000000000      2.584000000000000     -1.450300000000000
C       5.938400000000000     -2.556200000000000      0.035000000000000
C      -4.116100000000000      2.875800000000000      0.041200000000000
C      -6.959400000000000     -1.650100000000000     -1.130900000000000
C       4.323900000000000      2.871300000000000      0.038100000000000
C       6.832500000000000     -1.878500000000000      1.081200000000000
C      -5.560100000000000      3.221300000000000     -0.339300000000000
C      -7.353400000000000     -0.236500000000000     -0.676000000000000
C       5.788800000000000      3.101100000000000      0.425800000000000
C       7.327800000000000     -0.484800000000000      0.664800000000000
C      -6.604000000000000      2.120600000000000     -0.112600000000000
C      -6.193100000000000      0.758400000000000     -0.676400000000000
C       6.750700000000000      1.934600000000000      0.167500000000000
C       6.242300000000000      0.590600000000000      0.694100000000000
H      -2.088400000000000     -0.991500000000000     -0.564600000000000
H       2.010200000000000     -0.842600000000000      0.540500000000000
H      -2.043900000000000     -0.503800000000000      2.456900000000000
H      -3.391300000000000     -0.196500000000000      1.367000000000000
H      -1.953300000000000     -3.367100000000000     -0.086600000000000
H      -1.849900000000000     -3.088100000000000      1.638100000000000
H       3.380000000000000     -0.102800000000000     -1.370500000000000
H       2.014700000000000     -0.282200000000000     -2.467000000000000
H       1.720800000000000     -3.204900000000000     -0.004600000000000
H       1.634500000000000     -2.867100000000000     -1.719600000000000
H      -0.682200000000000      1.197900000000000      1.419400000000000
H      -1.771300000000000      1.380200000000000      0.060300000000000
H      -4.058200000000000     -3.905300000000000      1.017900000000000
H      -4.158700000000000     -2.315000000000000      1.744600000000000
H       0.778200000000000      1.483000000000000     -1.380000000000000
H       1.876900000000000      1.549200000000000     -0.018800000000000
H       3.777500000000000     -3.858400000000000     -1.125100000000000
H       3.992800000000000     -2.260000000000000     -1.807600000000000
H      -2.405800000000000      2.081700000000000      2.978500000000000
H      -1.902500000000000      3.226700000000000      1.745600000000000
H      -4.312800000000000     -1.340600000000000     -0.630800000000000
H      -4.367200000000000     -2.980600000000000     -1.243300000000000
H       2.562500000000000      2.283900000000000     -2.917600000000000
H       2.142400000000000      3.427900000000000     -1.653000000000000
H       4.214600000000000     -1.365400000000000      0.593600000000000
H       4.151100000000000     -3.021300000000000      1.160400000000000
H      -4.306200000000000      3.363700000000000      2.129300000000000
H      -4.525900000000000      1.658700000000000      1.793100000000000
H      -6.344400000000000     -2.057400000000000      0.905800000000000
H      -6.417600000000000     -3.474900000000000     -0.127700000000000
H       4.550000000000000      3.401600000000000     -2.036100000000000
H       4.645800000000000      1.676500000000000     -1.747200000000000
H       6.190900000000000     -2.184000000000000     -0.965100000000000
H       6.161000000000000     -3.631000000000000      0.028800000000000
H      -3.483400000000000      3.737400000000000     -0.206900000000000
H      -3.770900000000000      2.050600000000000     -0.590100000000000
H      -6.459800000000000     -1.617200000000000     -2.106000000000000
H      -7.893000000000000     -2.208300000000000     -1.278200000000000
H       3.754900000000000      3.769100000000000      0.310600000000000
H       3.919700000000000      2.056100000000000      0.646800000000000
H       6.336100000000000     -1.836600000000000      2.057500000000000
H       7.723300000000000     -2.506400000000000      1.211600000000000
H      -5.874000000000000      4.119300000000000      0.206900000000000
H      -5.571000000000000      3.491300000000000     -1.403100000000000
H      -8.133300000000000      0.136600000000000     -1.351900000000000
H      -7.804900000000000     -0.285400000000000      0.322500000000000
H       6.167000000000000      3.988800000000000     -0.096000000000000
H       5.818500000000000      3.340300000000000      1.496600000000000
H       8.132099999999999     -0.187800000000000      1.349600000000000
H       7.775200000000000     -0.538700000000000     -0.335300000000000
H      -7.545300000000000      2.444000000000000     -0.574000000000000
H      -6.804300000000000      2.021200000000000      0.961100000000000
H      -5.813100000000000      0.871300000000000     -1.698400000000000
H      -5.381100000000000      0.370200000000000     -0.059200000000000
H       7.712600000000000      2.176400000000000      0.636300000000000
H       6.944000000000000      1.850600000000000     -0.908800000000000
H       5.870800000000000      0.702400000000000      1.719400000000000
H       5.404700000000000      0.279100000000000      0.067700000000000
