90

O       3.584700000000000     -0.886000000000000      0.529000000000000
N      -2.457700000000000      1.047000000000000      0.507700000000000
C       3.112600000000000      1.909900000000000      0.725800000000000
C       1.580700000000000     -2.870700000000000      0.892700000000000
C       3.857000000000000      1.827900000000000     -0.678600000000000
C       0.330600000000000     -3.754100000000000      0.457400000000000
C       3.191900000000000      2.337200000000000     -1.999800000000000
C      -0.188000000000000     -3.785700000000000     -1.018200000000000
C       2.037800000000000      0.891900000000000      0.921000000000000
C       1.301200000000000     -1.407600000000000      1.001500000000000
C       2.317500000000000     -0.470600000000000      0.815300000000000
C      -3.602700000000000      1.924800000000000      0.784400000000000
C      -0.274500000000000      0.380300000000000      1.398800000000000
C      -4.672400000000000      1.816900000000000     -0.341700000000000
C       2.684600000000000      3.393600000000000      0.972000000000000
C       4.230300000000000      1.656500000000000      1.800500000000000
C       2.797000000000000     -3.256200000000000     -0.011100000000000
C       1.984900000000000     -3.400200000000000      2.315400000000000
C       0.741800000000000      1.317300000000000      1.212700000000000
C       0.005200000000000     -0.982200000000000      1.293200000000000
C      -5.204200000000000      0.454400000000000     -0.889600000000000
C      -1.673900000000000      0.839000000000000      1.712400000000000
C       1.827500000000000      1.703300000000000     -2.295200000000000
C       3.051800000000000      3.871900000000000     -2.017200000000000
C       4.144800000000000      1.963600000000000     -3.162300000000000
C      -0.527000000000000     -2.403700000000000     -1.589300000000000
C       0.805000000000000     -4.493400000000000     -1.960600000000000
C      -1.487500000000000     -4.628600000000000     -1.025900000000000
C      -3.051400000000000      3.367700000000000      0.771900000000000
C      -4.137000000000000      1.628100000000000      2.188000000000000
C      -5.884800000000000     -0.379000000000000      0.212400000000000
C      -4.133000000000000     -0.397200000000000     -1.581500000000000
C      -6.292800000000000      0.783800000000000     -1.941300000000000
H       4.797100000000000      2.392100000000000     -0.572600000000000
H       4.188000000000000      0.801200000000000     -0.862200000000000
H       0.599400000000000     -4.797700000000000      0.690100000000000
H      -0.514800000000000     -3.576100000000000      1.131700000000000
H      -4.275600000000000      2.354500000000000     -1.217100000000000
H      -5.540100000000000      2.411900000000000     -0.019700000000000
H       1.817400000000000      3.691500000000000      0.381700000000000
H       3.505700000000000      4.088200000000000      0.762700000000000
H       2.409700000000000      3.545600000000000      2.024200000000000
H       3.798300000000000      1.558700000000000      2.804000000000000
H       4.834300000000000      0.766800000000000      1.606600000000000
H       4.937600000000000      2.495000000000000      1.832000000000000
H       3.764200000000000     -3.130200000000000      0.487000000000000
H       2.809800000000000     -2.700300000000000     -0.953200000000000
H       2.781600000000000     -4.327800000000000     -0.239300000000000
H       2.240800000000000     -4.465800000000000      2.290700000000000
H       1.162800000000000     -3.270300000000000      3.029500000000000
H       2.850300000000000     -2.858900000000000      2.715600000000000
H       0.475800000000000      2.363800000000000      1.307900000000000
H      -0.811000000000000     -1.669900000000000      1.476100000000000
H      -1.549400000000000      1.736800000000000      2.328400000000000
H      -2.134200000000000      0.076200000000000      2.353000000000000
H      -1.887700000000000      1.450500000000000     -0.235300000000000
H       1.069000000000000      2.026100000000000     -1.576600000000000
H       1.464900000000000      1.987500000000000     -3.289900000000000
H       1.884900000000000      0.609900000000000     -2.263900000000000
H       2.159300000000000      4.228400000000000     -1.502200000000000
H       3.933600000000000      4.365200000000000     -1.595100000000000
H       2.948700000000000      4.237100000000000     -3.047100000000000
H       4.283500000000000      0.878100000000000     -3.225800000000000
H       5.131900000000000      2.420500000000000     -3.027300000000000
H       3.752300000000000      2.300300000000000     -4.128700000000000
H       0.357900000000000     -1.763300000000000     -1.651400000000000
H      -0.930000000000000     -2.487800000000000     -2.605700000000000
H      -1.285400000000000     -1.897800000000000     -0.986200000000000
H       1.640500000000000     -3.855900000000000     -2.253700000000000
H       1.192000000000000     -5.419400000000000     -1.522400000000000
H       0.310800000000000     -4.771900000000000     -2.900200000000000
H      -2.254000000000000     -4.177800000000000     -0.385100000000000
H      -1.302200000000000     -5.645700000000000     -0.662200000000000
H      -1.908600000000000     -4.707400000000000     -2.034800000000000
H      -2.316800000000000      3.563400000000000      1.559700000000000
H      -3.867300000000000      4.085900000000000      0.920100000000000
H      -2.576700000000000      3.613800000000000     -0.186000000000000
H      -5.111400000000000      2.117400000000000      2.316300000000000
H      -3.517800000000000      2.018900000000000      3.003100000000000
H      -4.311200000000000      0.563500000000000      2.368800000000000
H      -5.151400000000000     -0.796700000000000      0.907800000000000
H      -6.430700000000000     -1.228200000000000     -0.215200000000000
H      -6.600700000000000      0.222400000000000      0.782900000000000
H      -4.586000000000000     -1.223400000000000     -2.142200000000000
H      -3.447300000000000     -0.853800000000000     -0.863200000000000
H      -3.546900000000000      0.198600000000000     -2.289500000000000
H      -5.876100000000000      1.367800000000000     -2.769900000000000
H      -7.110200000000000      1.364900000000000     -1.499200000000000
H      -6.728800000000000     -0.127800000000000     -2.366100000000000
H       3.935200000000000     -1.275100000000000      1.350000000000000
