90

N       1.746100000000000      0.538800000000000      0.967200000000000
N       0.346200000000000      0.149200000000000      1.151100000000000
C       0.428400000000000      1.434500000000000     -0.794700000000000
C      -0.480200000000000      1.081800000000000      0.374300000000000
C       1.794000000000000      1.541300000000000     -0.116800000000000
C      -1.785100000000000      0.414100000000000     -0.076600000000000
C       2.484500000000000     -0.672100000000000      0.600500000000000
C      -0.016000000000000      2.659000000000000     -1.582800000000000
C       2.102500000000000      2.902200000000000      0.513700000000000
C      -2.843400000000000      0.551700000000000      1.045100000000000
C      -1.523200000000000     -1.072300000000000     -0.432900000000000
C       3.978200000000000     -0.339300000000000      0.724800000000000
C       1.970100000000000     -1.796100000000000      1.512700000000000
C       0.041000000000000      0.208700000000000      2.580000000000000
C       0.916200000000000      2.932600000000000     -2.760300000000000
C       3.496300000000000      2.919000000000000      1.128000000000000
C      -3.976000000000000      1.521000000000000      0.688000000000000
C      -2.311500000000000     -1.605300000000000     -1.643200000000000
C       5.002500000000000     -1.360700000000000      0.223100000000000
C       2.481300000000000     -3.218900000000000      1.289000000000000
C      -5.253600000000000      1.305900000000000      1.513400000000000
C      -3.830700000000000     -1.420700000000000     -1.632800000000000
C       4.798000000000000     -1.865800000000000     -1.206000000000000
C       2.080700000000000     -3.890700000000000     -0.022100000000000
C       0.488500000000000      4.171400000000000     -3.530900000000000
C       3.792800000000000      4.261900000000000      1.776400000000000
C       4.240900000000000     -3.291000000000000     -1.325300000000000
C       2.715100000000000     -3.397700000000000     -1.322700000000000
C      -5.906100000000000     -0.081600000000000      1.391500000000000
C      -4.558900000000000     -2.242000000000000     -0.567100000000000
C      -6.368400000000000     -0.446600000000000     -0.025800000000000
C      -6.050200000000000     -1.892300000000000     -0.438700000000000
H       0.470700000000000      0.588900000000000     -1.497100000000000
H      -0.696400000000000      2.007600000000000      0.926900000000000
H       2.562900000000000      1.337200000000000     -0.872400000000000
H      -2.146500000000000      0.922300000000000     -0.976300000000000
H       2.246500000000000     -0.922400000000000     -0.433100000000000
H      -0.087400000000000      3.542000000000000     -0.937200000000000
H      -1.025700000000000      2.499300000000000     -1.978400000000000
H       1.359700000000000      3.158500000000000      1.279900000000000
H       2.058900000000000      3.697400000000000     -0.237500000000000
H      -2.412000000000000      0.924000000000000      1.979000000000000
H      -3.245200000000000     -0.428600000000000      1.293300000000000
H      -1.709800000000000     -1.719900000000000      0.432600000000000
H      -0.475200000000000     -1.244700000000000     -0.704500000000000
H       4.213600000000000      0.563600000000000      0.157300000000000
H       4.218000000000000     -0.115100000000000      1.772700000000000
H       2.233600000000000     -1.557300000000000      2.551200000000000
H       0.887600000000000     -1.947900000000000      1.461400000000000
H       0.816000000000000     -0.219000000000000      3.222200000000000
H      -0.097800000000000      1.238200000000000      2.932900000000000
H      -0.866800000000000     -0.362000000000000      2.797600000000000
H       0.914200000000000      2.072300000000000     -3.440200000000000
H       1.949500000000000      3.072700000000000     -2.428600000000000
H       3.597200000000000      2.155300000000000      1.904300000000000
H       4.252800000000000      2.735200000000000      0.357800000000000
H      -4.223000000000000      1.464300000000000     -0.375100000000000
H      -3.621500000000000      2.546800000000000      0.850900000000000
H      -1.922600000000000     -1.105900000000000     -2.540500000000000
H      -2.080900000000000     -2.671000000000000     -1.766800000000000
H       5.125900000000000     -2.184600000000000      0.928700000000000
H       5.974700000000000     -0.847100000000000      0.247900000000000
H       2.049200000000000     -3.832100000000000      2.093700000000000
H       3.555100000000000     -3.294200000000000      1.452800000000000
H      -5.987400000000000      2.067100000000000      1.220700000000000
H      -5.024200000000000      1.487900000000000      2.570800000000000
H      -4.216800000000000     -1.723100000000000     -2.615000000000000
H      -4.057100000000000     -0.358800000000000     -1.546100000000000
H       5.792400000000000     -1.888300000000000     -1.673400000000000
H       4.211700000000000     -1.158600000000000     -1.803700000000000
H       0.989500000000000     -3.847300000000000     -0.130500000000000
H       2.323900000000000     -4.957600000000000      0.075600000000000
H      -0.527300000000000      4.058900000000000     -3.923300000000000
H       1.161600000000000      4.343100000000000     -4.376700000000000
H       0.514000000000000      5.059200000000000     -2.890900000000000
H       4.798100000000000      4.260300000000000      2.209500000000000
H       3.078800000000000      4.477800000000000      2.577800000000000
H       3.741400000000000      5.072800000000000      1.042700000000000
H       4.577300000000000     -3.667900000000000     -2.301300000000000
H       4.693300000000000     -3.958600000000000     -0.583400000000000
H       2.245800000000000     -2.476500000000000     -1.675200000000000
H       2.442300000000000     -4.140500000000000     -2.086300000000000
H      -6.788000000000000     -0.090200000000000      2.046000000000000
H      -5.244600000000000     -0.845400000000000      1.809100000000000
H      -4.073400000000000     -2.151600000000000      0.405900000000000
H      -4.479200000000000     -3.303400000000000     -0.835600000000000
H      -5.984900000000000      0.249700000000000     -0.775400000000000
H      -7.459300000000000     -0.324700000000000     -0.062800000000000
H      -6.507600000000000     -2.576700000000000      0.286500000000000
H      -6.539300000000000     -2.091000000000000     -1.400700000000000
