91

N       5.533700000000000     -0.410200000000000     -0.057200000000000
N      10.354200000000001      3.567100000000000      0.236000000000000
C      -3.171000000000000     -1.905300000000000     -0.466000000000000
C      -2.271200000000000     -2.517800000000000      0.655500000000000
C      -0.770900000000000     -2.576600000000000      0.287100000000000
C      -0.229100000000000     -1.210000000000000     -0.211600000000000
C       1.304800000000000     -1.270300000000000     -0.570900000000000
C      -3.911700000000000     -0.727400000000000      0.237500000000000
C       2.064900000000000     -1.807700000000000      0.684200000000000
C      -2.349900000000000     -1.424400000000000     -1.678400000000000
C      -1.116100000000000     -0.597400000000000     -1.320000000000000
C      -2.600900000000000     -1.730100000000000      1.937300000000000
C       0.070000000000000     -3.139500000000000      1.445500000000000
C      -3.990000000000000     -1.165100000000000      1.697000000000000
C       1.561000000000000     -3.187200000000000      1.122200000000000
C       1.846500000000000      0.157000000000000     -0.870700000000000
C      -4.151400000000000     -2.990000000000000     -0.966600000000000
C       3.592000000000000     -1.796600000000000      0.511500000000000
C      -5.272900000000000     -0.339400000000000     -0.325300000000000
C       1.541900000000000     -2.168600000000000     -1.814200000000000
C       3.370500000000000      0.213400000000000     -1.024800000000000
C       4.092200000000000     -0.384800000000000      0.185100000000000
C      -5.915000000000000      0.832300000000000      0.441000000000000
C      -5.129500000000000      0.023400000000000     -1.804900000000000
C      -5.317400000000000      2.196600000000000      0.082400000000000
C       6.117300000000000      0.902000000000000      0.172200000000000
C      -5.905500000000000      3.355700000000000      0.898100000000000
C       7.627900000000000      0.859400000000000     -0.059100000000000
C      -5.396700000000000      4.764700000000000      0.539100000000000
C       8.261100000000001      2.232700000000000      0.187300000000000
C      -3.894900000000000      4.922600000000000      0.777800000000000
C      -5.723100000000000      5.072900000000000     -0.925300000000000
C       9.779299999999999      2.248700000000000     -0.002100000000000
H      -2.590400000000000     -3.553600000000000      0.843100000000000
H      -0.689700000000000     -3.298800000000000     -0.536000000000000
H      -0.303300000000000     -0.514300000000000      0.637100000000000
H      -3.261100000000000      0.155700000000000      0.211600000000000
H       1.848600000000000     -1.120400000000000      1.517400000000000
H      -2.928000000000000     -0.876600000000000     -2.419600000000000
H      -1.991200000000000     -2.308900000000000     -2.225100000000000
H      -0.555500000000000     -0.428200000000000     -2.243900000000000
H      -1.429200000000000      0.404400000000000     -1.000600000000000
H      -1.897000000000000     -0.908100000000000      2.103800000000000
H      -2.576700000000000     -2.370200000000000      2.825200000000000
H      -0.275500000000000     -4.149200000000000      1.698200000000000
H      -0.066100000000000     -2.527900000000000      2.345500000000000
H      -4.754400000000000     -1.935400000000000      1.850500000000000
H      -4.186100000000000     -0.340200000000000      2.387600000000000
H       2.103400000000000     -3.514700000000000      2.017700000000000
H       1.756200000000000     -3.940600000000000      0.351000000000000
H       1.555600000000000      0.835100000000000     -0.057300000000000
H       1.395100000000000      0.561800000000000     -1.783600000000000
H      -4.835600000000000     -3.309200000000000     -0.172600000000000
H      -3.595800000000000     -3.882900000000000     -1.280600000000000
H      -4.751300000000000     -2.695900000000000     -1.827100000000000
H       4.062500000000000     -2.141300000000000      1.442100000000000
H       3.897200000000000     -2.508000000000000     -0.265300000000000
H      -5.967500000000000     -1.184100000000000     -0.238300000000000
H       1.129800000000000     -3.173200000000000     -1.692500000000000
H       2.604200000000000     -2.295000000000000     -2.040300000000000
H       1.086400000000000     -1.741800000000000     -2.713100000000000
H       3.650500000000000      1.263800000000000     -1.165400000000000
H       3.668200000000000     -0.306300000000000     -1.943700000000000
H       3.873600000000000      0.234200000000000      1.066900000000000
H      -5.883700000000000      0.674400000000000      1.522900000000000
H      -6.982700000000000      0.860200000000000      0.183100000000000
H      -4.312600000000000      0.728700000000000     -1.989400000000000
H      -5.008400000000000     -0.836700000000000     -2.461100000000000
H      -6.052400000000000      0.499300000000000     -2.161100000000000
H       5.976800000000000     -1.080500000000000      0.571300000000000
H      -5.495700000000000      2.402900000000000     -0.975900000000000
H      -4.233800000000000      2.172400000000000      0.234100000000000
H       5.688500000000000      1.648900000000000     -0.503900000000000
H       5.924800000000000      1.231300000000000      1.201000000000000
H      -5.705100000000000      3.172700000000000      1.961800000000000
H      -6.997900000000000      3.341800000000000      0.789300000000000
H       7.840700000000000      0.539400000000000     -1.086800000000000
H       8.088800000000001      0.123400000000000      0.611500000000000
H      -5.926200000000000      5.486200000000000      1.173700000000000
H       7.805400000000000      2.965100000000000     -0.491700000000000
H       8.023000000000000      2.558700000000000      1.208200000000000
H      -3.637500000000000      4.664400000000000      1.810300000000000
H      -3.587800000000000      5.960100000000000      0.606700000000000
H      -3.303200000000000      4.289100000000000      0.109500000000000
H      -6.780800000000000      4.889700000000000     -1.141400000000000
H      -5.521300000000000      6.128400000000000     -1.140200000000000
H      -5.118600000000000      4.482400000000000     -1.620900000000000
H      10.243499999999999      1.528000000000000      0.680500000000000
H      10.025200000000000      1.936600000000000     -1.023000000000000
H      11.368900000000000      3.513000000000000      0.158500000000000
H      10.154999999999999      3.860000000000000      1.191600000000000
