91

N       1.354600000000000      0.697800000000000     -0.090100000000000
N      -0.694900000000000     -0.422500000000000      0.208200000000000
C       2.203300000000000     -0.478400000000000      0.001400000000000
C       2.334200000000000     -1.105800000000000     -1.404200000000000
C       3.571700000000000     -0.125900000000000      0.626100000000000
C      -2.163700000000000     -0.355100000000000      0.307200000000000
C      -2.670600000000000     -1.459400000000000      1.256300000000000
C      -2.745000000000000     -0.474900000000000     -1.116400000000000
C       3.246800000000000     -0.269900000000000     -2.318300000000000
C       4.443700000000000      0.714000000000000     -0.318800000000000
C       4.597600000000000      0.054300000000000     -1.685900000000000
C       2.814500000000000     -2.559700000000000     -1.323100000000000
C       3.432100000000000      0.562400000000000      1.986800000000000
C      -2.469900000000000     -2.860000000000000      0.660400000000000
C      -2.584800000000000     -1.898900000000000     -1.675800000000000
C      -3.095500000000000     -2.979500000000000     -0.726300000000000
C      -0.019500000000000      0.667800000000000      0.014900000000000
C      -2.030400000000000     -1.366500000000000      2.643600000000000
C      -4.208400000000000     -0.022300000000000     -1.161500000000000
C      -0.685200000000000      2.003400000000000     -0.112300000000000
C      -0.201600000000000      2.934000000000000      1.000800000000000
C      -0.390600000000000      2.584000000000000     -1.496500000000000
C       1.919000000000000     -3.363000000000000     -0.386100000000000
C       2.845700000000000     -3.186400000000000     -2.712800000000000
C       2.536800000000000     -0.258600000000000      2.909800000000000
C       4.804300000000000      0.779000000000000      2.617400000000000
C      -2.633100000000000     -2.409700000000000      3.579800000000000
C      -2.201700000000000      0.037000000000000      3.217100000000000
C      -4.732800000000000     -0.061300000000000     -2.593100000000000
C      -4.350500000000000      1.376600000000000     -0.570700000000000
C      -0.778300000000000      4.339000000000000      0.845700000000000
C      -0.963900000000000      3.990600000000000     -1.648400000000000
C      -0.483800000000000      4.917900000000000     -0.535300000000000
H       1.695800000000000     -1.173300000000000      0.669300000000000
H       1.339300000000000     -1.114600000000000     -1.873900000000000
H       4.103300000000000     -1.074700000000000      0.789000000000000
H      -2.468200000000000      0.560800000000000      0.794200000000000
H      -3.753800000000000     -1.315500000000000      1.378600000000000
H      -2.180000000000000      0.183600000000000     -1.787400000000000
H       2.738500000000000      0.682100000000000     -2.525700000000000
H       3.392100000000000     -0.723400000000000     -3.302100000000000
H       5.453000000000000      0.843300000000000      0.084900000000000
H       4.022600000000000      1.719000000000000     -0.442600000000000
H       5.196000000000000     -0.859000000000000     -1.591100000000000
H       5.156600000000000      0.724500000000000     -2.349400000000000
H       3.833000000000000     -2.613500000000000     -0.921400000000000
H       2.971600000000000      1.551500000000000      1.868900000000000
H      -2.934600000000000     -3.628800000000000      1.285800000000000
H      -1.401200000000000     -3.099700000000000      0.601900000000000
H      -1.513100000000000     -2.079400000000000     -1.840400000000000
H      -3.038900000000000     -2.021300000000000     -2.662500000000000
H       1.826300000000000      1.574900000000000     -0.286400000000000
H      -2.864100000000000     -3.966700000000000     -1.143200000000000
H      -4.187200000000000     -2.923200000000000     -0.646500000000000
H      -0.953900000000000     -1.571600000000000      2.580200000000000
H      -4.841200000000000     -0.690000000000000     -0.565300000000000
H      -1.762800000000000      1.988100000000000     -0.040400000000000
H      -0.481100000000000      2.537000000000000      1.981800000000000
H       0.892000000000000      3.015600000000000      1.008800000000000
H       0.687100000000000      2.637200000000000     -1.691900000000000
H      -0.806000000000000      1.938600000000000     -2.278900000000000
H       2.129900000000000     -3.156800000000000      0.667600000000000
H       0.857100000000000     -3.181300000000000     -0.581800000000000
H       2.093100000000000     -4.437800000000000     -0.514000000000000
H       3.012200000000000     -4.267800000000000     -2.645200000000000
H       3.663700000000000     -2.795000000000000     -3.324100000000000
H       1.902500000000000     -3.032900000000000     -3.248200000000000
H       1.485600000000000     -0.222400000000000      2.610000000000000
H       2.853600000000000     -1.306200000000000      2.953400000000000
H       2.572000000000000      0.137400000000000      3.931300000000000
H       5.379200000000000      1.549900000000000      2.095900000000000
H       4.702500000000000      1.123700000000000      3.652800000000000
H       5.392400000000000     -0.144800000000000      2.634600000000000
H      -2.322800000000000     -3.425400000000000      3.317600000000000
H      -2.295000000000000     -2.244900000000000      4.609300000000000
H      -3.727600000000000     -2.367400000000000      3.582000000000000
H      -1.914400000000000      0.057800000000000      4.274700000000000
H      -1.559400000000000      0.763500000000000      2.719100000000000
H      -3.240600000000000      0.378200000000000      3.153400000000000
H      -4.887400000000000     -1.084200000000000     -2.948000000000000
H      -5.709600000000000      0.431500000000000     -2.659600000000000
H      -4.058500000000000      0.452800000000000     -3.286400000000000
H      -5.367000000000000      1.750500000000000     -0.747200000000000
H      -4.224800000000000      1.407200000000000      0.514000000000000
H      -3.674200000000000      2.090700000000000     -1.047800000000000
H      -0.361700000000000      4.996200000000000      1.617400000000000
H      -1.863300000000000      4.307900000000000      1.005200000000000
H      -2.059500000000000      3.943800000000000     -1.636800000000000
H      -0.674600000000000      4.403300000000000     -2.621600000000000
H      -0.967300000000000      5.896000000000000     -0.636000000000000
H       0.595900000000000      5.082500000000000     -0.638700000000000
