91

O      -2.723100000000000      2.806000000000000      0.302400000000000
O      -2.458500000000000      3.534100000000000     -1.869700000000000
C      -2.519800000000000      0.524400000000000     -0.508200000000000
C      -4.421800000000000     -2.684200000000000      0.462100000000000
C      -3.508700000000000      1.698000000000000     -0.169100000000000
C      -3.151100000000000     -0.299300000000000     -1.667800000000000
C      -2.090300000000000     -0.158800000000000      0.816300000000000
C      -5.798100000000000     -2.153300000000000      0.934100000000000
C      -4.562900000000000     -3.678100000000000     -0.715800000000000
C      -3.608500000000000     -3.277100000000000      1.636600000000000
C      -4.590200000000000      1.462800000000000      0.921400000000000
C      -2.554700000000000     -1.646800000000000     -2.070900000000000
C      -0.951300000000000     -1.175600000000000      0.797100000000000
C      -5.731500000000000     -0.772700000000000      1.622900000000000
C      -5.694600000000000      0.424900000000000      0.647300000000000
C      -4.804400000000000     -2.998000000000000     -2.079200000000000
C      -2.099200000000000     -3.473200000000000      1.376800000000000
C      -3.539900000000000     -2.540200000000000     -2.840200000000000
C      -1.161400000000000     -2.323800000000000      1.801300000000000
C      -2.262300000000000      3.645600000000000     -0.667100000000000
C      -1.426300000000000      4.728300000000000     -0.021100000000000
C      -0.235800000000000      4.189400000000000      0.773400000000000
C       0.821800000000000      3.476100000000000     -0.078200000000000
C       1.994900000000000      2.911200000000000      0.723400000000000
C       2.991700000000000      2.189400000000000     -0.186500000000000
C       4.182800000000000      1.652500000000000      0.609500000000000
C       5.195900000000000      0.959400000000000     -0.304400000000000
C       6.370100000000000      0.394900000000000      0.498200000000000
C       7.401400000000000     -0.338000000000000     -0.364500000000000
C       8.611700000000001     -0.838900000000000      0.426600000000000
C       9.641299999999999     -1.497800000000000     -0.494200000000000
C      10.836499999999999     -2.028000000000000      0.297300000000000
C      11.846000000000000     -2.713000000000000     -0.610000000000000
H      -1.599000000000000      0.957300000000000     -0.923500000000000
H      -3.878300000000000     -1.833300000000000      0.099200000000000
H      -4.048600000000000      1.999900000000000     -1.076800000000000
H      -3.135600000000000      0.338200000000000     -2.564100000000000
H      -4.209200000000000     -0.438500000000000     -1.473400000000000
H      -2.951600000000000     -0.584800000000000      1.320800000000000
H      -1.761000000000000      0.638400000000000      1.499600000000000
H      -6.229000000000000     -2.876200000000000      1.638800000000000
H      -6.502600000000000     -2.090900000000000      0.096900000000000
H      -5.407500000000000     -4.346600000000000     -0.504200000000000
H      -3.683400000000000     -4.324400000000000     -0.802900000000000
H      -4.041500000000000     -4.257600000000000      1.877000000000000
H      -3.731700000000000     -2.668900000000000      2.539500000000000
H      -5.093700000000000      2.432000000000000      1.058300000000000
H      -4.116800000000000      1.293000000000000      1.895900000000000
H      -2.229400000000000     -2.225300000000000     -1.215400000000000
H      -1.664800000000000     -1.473000000000000     -2.687400000000000
H      -0.713000000000000     -1.562600000000000     -0.192400000000000
H      -0.039500000000000     -0.641400000000000      1.100100000000000
H      -4.907800000000000     -0.739200000000000      2.341100000000000
H      -6.644900000000000     -0.671600000000000      2.224700000000000
H      -5.717800000000000      0.107700000000000     -0.394000000000000
H      -6.652200000000000      0.950100000000000      0.777300000000000
H      -5.502600000000000     -2.161300000000000     -1.974600000000000
H      -5.313500000000000     -3.725100000000000     -2.725600000000000
H      -1.893200000000000     -3.769800000000000      0.345200000000000
H      -1.803000000000000     -4.336800000000000      1.989100000000000
H      -2.996100000000000     -3.437500000000000     -3.162700000000000
H      -3.852600000000000     -2.025700000000000     -3.757100000000000
H      -1.469000000000000     -1.924500000000000      2.775400000000000
H      -0.172300000000000     -2.773800000000000      1.963600000000000
H      -1.073800000000000      5.402300000000000     -0.810400000000000
H      -2.084000000000000      5.316200000000000      0.629400000000000
H      -0.587900000000000      3.503100000000000      1.553200000000000
H       0.241500000000000      5.030100000000000      1.291900000000000
H       1.202800000000000      4.178100000000000     -0.830500000000000
H       0.346100000000000      2.655300000000000     -0.628400000000000
H       2.499600000000000      3.727300000000000      1.254300000000000
H       1.618400000000000      2.214700000000000      1.482200000000000
H       2.488700000000000      1.361300000000000     -0.700500000000000
H       3.349500000000000      2.880700000000000     -0.959300000000000
H       3.826000000000000      0.945500000000000      1.368400000000000
H       4.673400000000000      2.477100000000000      1.140600000000000
H       4.703300000000000      0.145900000000000     -0.850400000000000
H       5.569300000000000      1.671000000000000     -1.050500000000000
H       5.991500000000000     -0.295300000000000      1.262300000000000
H       6.866700000000000      1.215200000000000      1.031400000000000
H       6.916000000000000     -1.186000000000000     -0.863200000000000
H       7.745700000000000      0.339300000000000     -1.156100000000000
H       9.078200000000001      0.000800000000000      0.955700000000000
H       8.278600000000001     -1.555900000000000      1.186600000000000
H       9.986700000000001     -0.772200000000000     -1.240700000000000
H       9.168400000000000     -2.323100000000000     -1.040500000000000
H      11.327900000000000     -1.203200000000000      0.826300000000000
H      10.494300000000001     -2.741800000000000      1.055700000000000
H      11.393500000000000     -3.564600000000000     -1.128200000000000
H      12.231900000000000     -2.018000000000000     -1.362500000000000
H      12.692700000000000     -3.083300000000000     -0.023500000000000
