91

N       6.217700000000000     -0.092800000000000     -0.479300000000000
N      10.326300000000000      3.063100000000000      0.340300000000000
C      -2.544300000000000     -0.554300000000000      0.705100000000000
C      -1.849000000000000     -1.037800000000000     -0.586400000000000
C      -0.445000000000000     -0.430600000000000     -0.811900000000000
C       0.482100000000000     -0.560900000000000      0.428800000000000
C       1.914400000000000      0.048800000000000      0.171500000000000
C      -3.703100000000000     -1.581700000000000      0.865100000000000
C       2.497100000000000     -0.637500000000000     -1.104900000000000
C      -1.582000000000000     -0.657700000000000      1.916700000000000
C      -0.222600000000000      0.001700000000000      1.678400000000000
C      -1.900600000000000     -2.571300000000000     -0.492800000000000
C       0.208500000000000     -1.003700000000000     -2.079900000000000
C      -3.089400000000000     -2.915300000000000      0.406800000000000
C       1.602000000000000     -0.434800000000000     -2.331400000000000
C       2.865900000000000     -0.280300000000000      1.357800000000000
C      -3.043800000000000      0.894800000000000      0.572100000000000
C       3.949700000000000     -0.230500000000000     -1.398500000000000
C      -4.966700000000000     -1.283300000000000      0.051400000000000
C       1.840300000000000      1.590400000000000      0.019600000000000
C       4.330400000000000      0.085500000000000      1.091100000000000
C       4.854500000000000     -0.544900000000000     -0.201800000000000
C      -5.894400000000000     -0.272300000000000      0.751000000000000
C      -5.725900000000000     -2.585900000000000     -0.210100000000000
C      -6.837100000000000      0.458100000000000     -0.210600000000000
C       7.178300000000000     -0.828800000000000      0.327400000000000
C      -7.710300000000000      1.517500000000000      0.475000000000000
C       8.601200000000000     -0.367300000000000      0.012400000000000
C      -8.730200000000000      2.241700000000000     -0.424200000000000
C       8.775600000000001      1.124500000000000      0.315600000000000
C      -9.594200000000001      3.234600000000000      0.353600000000000
C      -7.995500000000000      2.969300000000000     -1.554200000000000
C      10.190000000000000      1.641700000000000      0.045900000000000
H      -2.465800000000000     -0.748900000000000     -1.449800000000000
H      -0.604700000000000      0.638700000000000     -0.999400000000000
H       0.634100000000000     -1.633900000000000      0.614100000000000
H      -3.992600000000000     -1.669200000000000      1.921400000000000
H       2.518800000000000     -1.721800000000000     -0.912200000000000
H      -1.400400000000000     -1.706100000000000      2.182900000000000
H      -2.049600000000000     -0.206900000000000      2.801400000000000
H      -0.358300000000000      1.084400000000000      1.594000000000000
H       0.391200000000000     -0.167600000000000      2.569300000000000
H      -0.985100000000000     -3.002200000000000     -0.075400000000000
H      -2.034500000000000     -3.005800000000000     -1.490000000000000
H      -0.425900000000000     -0.797400000000000     -2.950300000000000
H       0.290700000000000     -2.094700000000000     -2.003500000000000
H      -3.703600000000000     -3.688200000000000     -0.048600000000000
H      -2.686600000000000     -3.414800000000000      1.299900000000000
H       2.037200000000000     -0.945200000000000     -3.199400000000000
H       1.534600000000000      0.625800000000000     -2.598100000000000
H       2.811700000000000     -1.353700000000000      1.582500000000000
H       2.546300000000000      0.243500000000000      2.266100000000000
H      -3.736000000000000      1.039900000000000     -0.260800000000000
H      -2.210500000000000      1.577300000000000      0.371200000000000
H      -3.495700000000000      1.251700000000000      1.502200000000000
H       4.307000000000000     -0.782900000000000     -2.278000000000000
H       4.007200000000000      0.832300000000000     -1.662600000000000
H      -4.690000000000000     -0.882600000000000     -0.931100000000000
H       1.121600000000000      1.905500000000000     -0.740800000000000
H       2.801600000000000      2.029500000000000     -0.260700000000000
H       1.548300000000000      2.067500000000000      0.961300000000000
H       4.919800000000000     -0.248600000000000      1.952800000000000
H       4.438400000000000      1.176500000000000      1.053900000000000
H       4.845400000000000     -1.638200000000000     -0.085900000000000
H      -5.352000000000000      0.472100000000000      1.330400000000000
H      -6.501700000000000     -0.804200000000000      1.496700000000000
H      -5.786600000000000     -3.223100000000000      0.679300000000000
H      -6.760100000000000     -2.380700000000000     -0.509200000000000
H      -5.307600000000000     -3.145300000000000     -1.053400000000000
H       6.436300000000000     -0.240000000000000     -1.464700000000000
H      -7.489200000000000     -0.261400000000000     -0.717600000000000
H      -6.228200000000000      0.937700000000000     -0.984800000000000
H       6.997400000000000     -0.685700000000000      1.398000000000000
H       7.112900000000000     -1.903800000000000      0.119700000000000
H      -7.055400000000000      2.260800000000000      0.948800000000000
H      -8.259300000000000      1.031900000000000      1.292400000000000
H       8.838800000000001     -0.563300000000000     -1.040500000000000
H       9.308600000000000     -0.949900000000000      0.614500000000000
H      -9.395700000000000      1.493000000000000     -0.871800000000000
H       8.074900000000000      1.715600000000000     -0.287100000000000
H       8.520200000000001      1.308400000000000      1.367400000000000
H     -10.141400000000001      2.725100000000000      1.153600000000000
H     -10.328600000000000      3.712700000000000     -0.303100000000000
H      -8.982300000000000      4.020400000000000      0.809500000000000
H      -7.507800000000000      2.265800000000000     -2.235500000000000
H      -8.698399999999999      3.556800000000000     -2.155300000000000
H      -7.236000000000000      3.654200000000000     -1.162100000000000
H      10.909500000000000      1.080600000000000      0.652700000000000
H      10.448200000000000      1.473800000000000     -1.005400000000000
H      11.296099999999999      3.345400000000000      0.204700000000000
H      10.113700000000000      3.231200000000000      1.322700000000000
