91

N       5.159300000000000      1.089400000000000      0.897300000000000
N       9.702000000000000     -3.189800000000000      0.469400000000000
C      -2.442300000000000     -0.211700000000000     -0.088900000000000
C      -1.312800000000000     -0.875400000000000     -0.906900000000000
C      -0.118400000000000      0.059800000000000     -1.206800000000000
C       0.426900000000000      0.777700000000000      0.059700000000000
C       1.655000000000000      1.712600000000000     -0.266500000000000
C      -3.279600000000000     -1.437600000000000      0.380600000000000
C       2.732500000000000      0.838700000000000     -0.984300000000000
C      -1.862600000000000      0.528700000000000      1.144100000000000
C      -0.721000000000000      1.487600000000000      0.803000000000000
C      -0.973700000000000     -2.150500000000000     -0.118100000000000
C       0.990900000000000     -0.685200000000000     -1.967700000000000
C      -2.228800000000000     -2.521500000000000      0.674300000000000
C       2.195800000000000      0.201500000000000     -2.270400000000000
C       2.287400000000000      2.259700000000000      1.046100000000000
C      -3.255300000000000      0.777100000000000     -0.942100000000000
C       4.048000000000000      1.595100000000000     -1.239300000000000
C      -4.302600000000000     -1.964700000000000     -0.631200000000000
C       1.214200000000000      2.921100000000000     -1.133600000000000
C       3.615700000000000      2.996000000000000      0.826200000000000
C       4.648300000000000      2.171500000000000      0.050700000000000
C      -5.622800000000000     -1.171900000000000     -0.603500000000000
C      -4.581800000000000     -3.443100000000000     -0.353000000000000
C      -6.361800000000000     -1.263500000000000      0.735500000000000
C       6.426200000000000      0.594500000000000      0.385600000000000
C      -7.712100000000000     -0.534700000000000      0.740300000000000
C       6.722500000000000     -0.793800000000000      0.952800000000000
C      -7.675600000000000      0.963900000000000      0.385100000000000
C       8.060300000000000     -1.327800000000000      0.430300000000000
C      -9.069100000000001      1.592400000000000      0.357200000000000
C      -6.791600000000000      1.710000000000000      1.388900000000000
C       8.426900000000000     -2.705900000000000      0.984900000000000
H      -1.720000000000000     -1.198100000000000     -1.876200000000000
H      -0.502700000000000      0.829300000000000     -1.888300000000000
H       0.804600000000000      0.001400000000000      0.740600000000000
H      -3.775000000000000     -1.204800000000000      1.327300000000000
H       2.979500000000000      0.003400000000000     -0.311100000000000
H      -1.486600000000000     -0.184900000000000      1.887400000000000
H      -2.661200000000000      1.086800000000000      1.649800000000000
H      -1.112900000000000      2.320000000000000      0.210700000000000
H      -0.355900000000000      1.918100000000000      1.741500000000000
H      -0.131500000000000     -2.013800000000000      0.567600000000000
H      -0.699800000000000     -2.958600000000000     -0.805900000000000
H       0.592700000000000     -1.083200000000000     -2.908800000000000
H       1.336400000000000     -1.547300000000000     -1.384400000000000
H      -2.462100000000000     -3.575700000000000      0.545000000000000
H      -1.971600000000000     -2.453500000000000      1.741400000000000
H       2.975500000000000     -0.414700000000000     -2.734900000000000
H       1.926900000000000      0.966800000000000     -3.006900000000000
H       2.452900000000000      1.431300000000000      1.747000000000000
H       1.598600000000000      2.951300000000000      1.545300000000000
H      -3.646500000000000      0.328700000000000     -1.859400000000000
H      -2.627300000000000      1.607900000000000     -1.282500000000000
H      -4.061700000000000      1.234900000000000     -0.363200000000000
H       4.749300000000000      0.934500000000000     -1.759300000000000
H       3.872800000000000      2.417900000000000     -1.943300000000000
H      -3.903900000000000     -1.909500000000000     -1.651200000000000
H       0.681600000000000      2.619900000000000     -2.038800000000000
H       2.059000000000000      3.533300000000000     -1.460300000000000
H       0.551000000000000      3.588800000000000     -0.573300000000000
H       4.022700000000000      3.300800000000000      1.799100000000000
H       3.427900000000000      3.931000000000000      0.284700000000000
H       5.473800000000000      2.848900000000000     -0.206000000000000
H      -6.280900000000000     -1.584900000000000     -1.380800000000000
H      -5.491900000000000     -0.133400000000000     -0.885200000000000
H      -4.684900000000000     -3.671900000000000      0.713400000000000
H      -5.519300000000000     -3.750100000000000     -0.833900000000000
H      -3.822300000000000     -4.092100000000000     -0.802500000000000
H       5.289900000000000      1.413900000000000      1.854900000000000
H      -5.758000000000000     -0.864900000000000      1.554000000000000
H      -6.562400000000000     -2.311500000000000      0.984800000000000
H       6.446800000000000      0.516400000000000     -0.705400000000000
H       7.228500000000000      1.288900000000000      0.664900000000000
H      -8.170600000000000     -0.663000000000000      1.729600000000000
H      -8.378000000000000     -1.042900000000000      0.030500000000000
H       5.920300000000000     -1.489700000000000      0.676400000000000
H       6.751700000000000     -0.751000000000000      2.048700000000000
H      -7.251400000000000      1.094100000000000     -0.616500000000000
H       8.023300000000001     -1.378900000000000     -0.665600000000000
H       8.854500000000000     -0.614400000000000      0.686000000000000
H      -9.706400000000000      1.084500000000000     -0.374200000000000
H      -9.016200000000000      2.650200000000000      0.078900000000000
H      -9.555300000000001      1.522000000000000      1.336000000000000
H      -5.750800000000000      1.378900000000000      1.341200000000000
H      -6.794300000000000      2.785200000000000      1.178600000000000
H      -7.148500000000000      1.569400000000000      2.415000000000000
H       8.477300000000000     -2.661600000000000      2.078700000000000
H       7.644900000000000     -3.426900000000000      0.723000000000000
H       9.930999999999999     -4.078400000000000      0.912800000000000
H      10.444200000000000     -2.541000000000000      0.727900000000000
