91

O       4.729000000000000     -0.938800000000000      2.316200000000000
O       3.925100000000000     -0.292800000000000     -2.090300000000000
C       3.107000000000000      0.646000000000000      1.485800000000000
C       3.846500000000000      0.771300000000000      0.131500000000000
C       3.333300000000000     -0.740100000000000      2.098100000000000
C       3.533400000000000      1.781700000000000      2.426800000000000
C       2.743200000000000     -1.830900000000000      1.170200000000000
C       3.463200000000000      2.125600000000000     -0.502500000000000
C       3.054600000000000     -1.592000000000000     -0.308500000000000
C       3.574000000000000     -0.428900000000000     -0.757400000000000
C       3.211400000000000      3.141600000000000      1.810900000000000
C       3.819500000000000      3.293400000000000      0.420500000000000
C       2.718500000000000     -2.721400000000000     -1.251500000000000
C       3.161100000000000     -3.228000000000000      1.651100000000000
C       1.220600000000000     -3.042800000000000     -1.298200000000000
C       0.309300000000000     -1.907000000000000     -1.814300000000000
C      -1.177700000000000     -2.325400000000000     -1.821400000000000
C      -1.803800000000000     -2.397600000000000     -0.423200000000000
C       0.706200000000000     -1.457800000000000     -3.225400000000000
C      -3.253000000000000     -2.892200000000000     -0.497400000000000
C      -4.002900000000000     -2.933500000000000      0.850400000000000
C      -3.952300000000000     -1.620100000000000      1.656000000000000
C      -4.621400000000000     -0.438900000000000      0.944400000000000
C      -4.458400000000000      0.854000000000000      1.751100000000000
C      -5.026800000000000      2.121600000000000      1.079600000000000
C      -5.460700000000000     -3.368000000000000      0.663600000000000
C      -4.361100000000000      2.481600000000000     -0.265300000000000
C      -2.828300000000000      2.497500000000000     -0.202900000000000
C      -6.545200000000000      2.025000000000000      0.895500000000000
C      -2.177900000000000      2.756900000000000     -1.570100000000000
C      -0.637600000000000      2.811200000000000     -1.603300000000000
C      -0.066800000000000      2.929600000000000     -3.013700000000000
C      -0.081900000000000      3.919200000000000     -0.706400000000000
H       2.025200000000000      0.754400000000000      1.311500000000000
H       4.931300000000000      0.786100000000000      0.310500000000000
H       2.838700000000000     -0.808600000000000      3.075200000000000
H       4.608900000000000      1.731400000000000      2.634700000000000
H       3.014800000000000      1.688800000000000      3.388100000000000
H       1.650400000000000     -1.764400000000000      1.270200000000000
H       2.389800000000000      2.136700000000000     -0.722800000000000
H       3.980800000000000      2.279000000000000     -1.455600000000000
H       3.579200000000000      3.940400000000000      2.464600000000000
H       2.122900000000000      3.260900000000000      1.745000000000000
H       3.481200000000000      4.234100000000000     -0.028400000000000
H       4.911000000000000      3.360000000000000      0.510000000000000
H       3.268900000000000     -3.621500000000000     -0.952600000000000
H       3.074300000000000     -2.525800000000000     -2.268800000000000
H       4.215300000000000     -3.431000000000000      1.432300000000000
H       2.561100000000000     -4.018100000000000      1.189700000000000
H       3.018700000000000     -3.319500000000000      2.733800000000000
H       1.089700000000000     -3.917900000000000     -1.949000000000000
H       0.883800000000000     -3.363600000000000     -0.307600000000000
H       4.995900000000000     -0.378800000000000      3.064200000000000
H       0.410300000000000     -1.037300000000000     -1.152600000000000
H       4.551200000000000      0.445800000000000     -2.165400000000000
H      -1.756200000000000     -1.601300000000000     -2.410000000000000
H      -1.283300000000000     -3.293500000000000     -2.327300000000000
H      -1.758500000000000     -1.397700000000000      0.020500000000000
H      -1.234800000000000     -3.070600000000000      0.225800000000000
H       0.021500000000000     -0.685900000000000     -3.594100000000000
H       1.708000000000000     -1.025700000000000     -3.252400000000000
H       0.676800000000000     -2.296900000000000     -3.928700000000000
H      -3.259300000000000     -3.902200000000000     -0.928300000000000
H      -3.809400000000000     -2.262500000000000     -1.203200000000000
H      -3.513700000000000     -3.698200000000000      1.469100000000000
H      -4.448600000000000     -1.776900000000000      2.622900000000000
H      -2.912300000000000     -1.372300000000000      1.897100000000000
H      -5.686900000000000     -0.644300000000000      0.804500000000000
H      -4.178700000000000     -0.307200000000000     -0.046900000000000
H      -4.965500000000000      0.722000000000000      2.716700000000000
H      -3.403100000000000      1.007900000000000      2.003600000000000
H      -4.836500000000000      2.953700000000000      1.771300000000000
H      -5.996800000000000     -2.719100000000000     -0.035800000000000
H      -5.999300000000000     -3.372000000000000      1.616900000000000
H      -5.500900000000000     -4.384900000000000      0.257800000000000
H      -4.717800000000000      3.467000000000000     -0.591000000000000
H      -4.679400000000000      1.769200000000000     -1.036700000000000
H      -2.442400000000000      1.538500000000000      0.156500000000000
H      -2.517500000000000      3.264000000000000      0.515100000000000
H      -6.819000000000000      1.270200000000000      0.151600000000000
H      -7.038100000000000      1.771300000000000      1.839700000000000
H      -6.950800000000000      2.984700000000000      0.556800000000000
H      -2.509200000000000      1.969400000000000     -2.260100000000000
H      -2.571500000000000      3.699300000000000     -1.972900000000000
H      -0.271400000000000      1.857600000000000     -1.198700000000000
H      -0.371600000000000      3.870800000000000     -3.483300000000000
H       1.027600000000000      2.894000000000000     -2.999800000000000
H      -0.419400000000000      2.106800000000000     -3.644300000000000
H      -0.529100000000000      4.887200000000000     -0.956900000000000
H      -0.281600000000000      3.713400000000000      0.349600000000000
H       1.001300000000000      4.017100000000000     -0.820300000000000
