91

O       0.755900000000000     -0.412000000000000     -0.345700000000000
O      -0.769900000000000     -0.983200000000000      1.353300000000000
C       1.542500000000000     -1.569100000000000     -0.593900000000000
C       1.517100000000000     -2.458500000000000      0.679100000000000
C       3.010900000000000     -1.143600000000000     -0.864000000000000
C       3.540400000000000     -1.261300000000000      1.603300000000000
C       3.843800000000000     -3.302100000000000      0.158400000000000
C       2.089700000000000     -1.691300000000000      1.888000000000000
C       2.390200000000000     -3.714100000000000      0.451100000000000
C       3.585600000000000     -0.376300000000000      0.344200000000000
C       3.882400000000000     -2.401300000000000     -1.088900000000000
C       4.395100000000000     -2.517600000000000      1.361200000000000
C       0.893900000000000     -2.257300000000000     -1.802000000000000
C      -0.608800000000000     -0.716800000000000     -0.037900000000000
C      -1.559700000000000      0.463200000000000     -0.519100000000000
C       0.934500000000000     -1.365900000000000     -3.025000000000000
C      -3.022400000000000     -0.173000000000000     -0.986600000000000
C      -1.806800000000000      1.520600000000000      0.644400000000000
C      -0.905700000000000      1.148200000000000     -1.743400000000000
C      -0.732800000000000      2.491900000000000      1.269500000000000
C      -3.757800000000000     -0.891500000000000      0.207600000000000
C      -2.843500000000000     -1.219500000000000     -2.116600000000000
C      -3.965000000000000      0.930600000000000     -1.543000000000000
C      -0.076800000000000      3.368600000000000      0.155200000000000
C      -5.161000000000000     -1.458400000000000     -0.074000000000000
C      -1.519700000000000      3.426500000000000      2.230900000000000
C       0.336300000000000      1.788800000000000      2.110600000000000
C       0.481300000000000      4.730800000000000      0.600000000000000
C      -5.766900000000000     -2.075800000000000      1.189900000000000
C       1.021500000000000      5.518100000000000     -0.599700000000000
C      -7.173400000000000     -2.595200000000000      0.937300000000000
C       2.129700000000000      4.784200000000000     -1.357900000000000
C       3.319300000000000      4.412300000000000     -0.486400000000000
H       0.522500000000000     -2.840700000000000      0.910700000000000
H       3.079300000000000     -0.481300000000000     -1.733900000000000
H       3.937200000000000     -0.706200000000000      2.460600000000000
H       4.455900000000000     -4.195100000000000     -0.009900000000000
H       2.066200000000000     -2.335800000000000      2.776100000000000
H       1.496500000000000     -0.813000000000000      2.140100000000000
H       1.996600000000000     -4.333300000000000     -0.361400000000000
H       2.363900000000000     -4.346100000000000      1.348500000000000
H       3.023500000000000      0.548800000000000      0.511400000000000
H       4.620700000000000     -0.076000000000000      0.137800000000000
H       4.918100000000000     -2.095600000000000     -1.286500000000000
H       3.563100000000000     -2.958500000000000     -1.975000000000000
H       4.392600000000000     -3.151700000000000      2.256300000000000
H       5.438200000000000     -2.232200000000000      1.177300000000000
H       1.447800000000000     -3.164100000000000     -2.068500000000000
H      -0.108700000000000     -2.658000000000000     -1.662500000000000
H      -0.958000000000000     -1.614000000000000     -0.514600000000000
H       1.016600000000000     -0.301100000000000     -2.815600000000000
H       0.052100000000000     -1.534800000000000     -3.650200000000000
H       1.804600000000000     -1.621700000000000     -3.641900000000000
H      -2.249000000000000      0.987600000000000      1.493800000000000
H      -2.600100000000000      2.186000000000000      0.284200000000000
H      -0.932500000000000      0.535500000000000     -2.640800000000000
H      -1.434000000000000      2.068900000000000     -2.007600000000000
H       0.139100000000000      1.416800000000000     -1.596300000000000
H      -3.137100000000000     -1.716400000000000      0.572300000000000
H      -3.867400000000000     -0.188100000000000      1.038800000000000
H      -1.120500000000000     -1.882600000000000      1.461600000000000
H      -3.816800000000000     -1.500400000000000     -2.538100000000000
H      -2.270200000000000     -0.854400000000000     -2.968500000000000
H      -2.400800000000000     -2.156100000000000     -1.770900000000000
H      -4.853600000000000      0.499700000000000     -2.018000000000000
H      -3.483300000000000      1.533500000000000     -2.316800000000000
H      -4.323900000000000      1.600300000000000     -0.756200000000000
H       0.737700000000000      2.792800000000000     -0.286500000000000
H      -0.821100000000000      3.582100000000000     -0.618900000000000
H      -5.113300000000000     -2.223000000000000     -0.856300000000000
H      -5.828800000000000     -0.665200000000000     -0.425100000000000
H      -2.230200000000000      4.058000000000000      1.685400000000000
H      -0.858200000000000      4.075100000000000      2.815500000000000
H      -2.094800000000000      2.838500000000000      2.956500000000000
H       1.022300000000000      1.227700000000000      1.479300000000000
H       0.945700000000000      2.510600000000000      2.666300000000000
H      -0.111700000000000      1.109700000000000      2.842800000000000
H      -0.307100000000000      5.345700000000000      1.046500000000000
H       1.256700000000000      4.600400000000000      1.361800000000000
H      -5.134800000000000     -2.899800000000000      1.540800000000000
H      -5.801200000000000     -1.328500000000000      1.991200000000000
H       1.403500000000000      6.482500000000000     -0.243400000000000
H       0.202600000000000      5.742200000000000     -1.294000000000000
H      -7.172900000000000     -3.366600000000000      0.160600000000000
H      -7.585300000000000     -3.033800000000000      1.851600000000000
H      -7.839200000000000     -1.786800000000000      0.618700000000000
H       2.484400000000000      5.447000000000000     -2.157300000000000
H       1.742500000000000      3.893000000000000     -1.862800000000000
H       3.062000000000000      3.639200000000000      0.243600000000000
H       3.702400000000000      5.285400000000000      0.051200000000000
H       4.129100000000000      4.017300000000000     -1.108600000000000
