91

N       6.164300000000000     -0.058500000000000      0.601900000000000
N      11.631800000000000      2.258700000000000     -1.368200000000000
C      -2.523100000000000     -1.119500000000000     -0.387000000000000
C      -1.893900000000000     -0.395200000000000      0.823200000000000
C      -0.450900000000000     -0.833200000000000      1.097300000000000
C       0.412500000000000     -0.519700000000000     -0.168200000000000
C       1.927200000000000     -0.890600000000000      0.047400000000000
C      -3.940700000000000     -0.498800000000000     -0.335700000000000
C       2.419900000000000     -0.119400000000000      1.314100000000000
C      -1.703900000000000     -0.752200000000000     -1.632400000000000
C      -0.215400000000000     -1.107000000000000     -1.459900000000000
C      -2.940200000000000     -0.556300000000000      1.921900000000000
C       0.118400000000000     -0.143800000000000      2.345400000000000
C      -4.284200000000000     -0.495800000000000      1.172500000000000
C       1.596800000000000     -0.458200000000000      2.562100000000000
C       2.785000000000000     -0.413200000000000     -1.158600000000000
C      -2.584200000000000     -2.660800000000000     -0.240700000000000
C       3.925400000000000     -0.289000000000000      1.572800000000000
C      -5.010300000000000     -1.170200000000000     -1.185200000000000
C       2.101900000000000     -2.424100000000000      0.194600000000000
C       4.295200000000000     -0.537300000000000     -0.926700000000000
C       4.740100000000000      0.168200000000000      0.357300000000000
C      -6.443800000000000     -0.827700000000000     -0.724700000000000
C      -4.836300000000000     -0.769100000000000     -2.655200000000000
C      -6.735800000000000      0.676200000000000     -0.717500000000000
C       6.974900000000000      0.823800000000000     -0.222800000000000
C      -8.137300000000000      1.025200000000000     -0.199200000000000
C       8.460400000000000      0.597400000000000      0.057900000000000
C      -8.520300000000001      2.516900000000000     -0.230200000000000
C       9.329599999999999      1.525800000000000     -0.796500000000000
C      -9.951400000000000      2.763300000000000      0.248000000000000
C      -7.541200000000000      3.318400000000000      0.632800000000000
C      10.829700000000001      1.365800000000000     -0.540600000000000
H      -1.855200000000000      0.684500000000000      0.599500000000000
H      -0.439700000000000     -1.909500000000000      1.294900000000000
H       0.378700000000000      0.573500000000000     -0.302300000000000
H      -3.858400000000000      0.556300000000000     -0.637600000000000
H       2.263800000000000      0.954300000000000      1.124300000000000
H      -1.788900000000000      0.321700000000000     -1.841500000000000
H      -2.064600000000000     -1.277200000000000     -2.520000000000000
H       0.318800000000000     -0.729500000000000     -2.338900000000000
H      -0.105300000000000     -2.195800000000000     -1.476100000000000
H      -2.832800000000000     -1.515900000000000      2.440200000000000
H      -2.868300000000000      0.236300000000000      2.673700000000000
H      -0.006500000000000      0.943200000000000      2.257600000000000
H      -0.442100000000000     -0.453100000000000      3.235400000000000
H      -4.875900000000000     -1.366900000000000      1.473400000000000
H      -4.833100000000000      0.401800000000000      1.470600000000000
H       1.957700000000000      0.128000000000000      3.416100000000000
H       1.720200000000000     -1.511900000000000      2.836700000000000
H       2.532500000000000     -0.983100000000000     -2.060500000000000
H       2.552800000000000      0.637300000000000     -1.378600000000000
H      -2.943100000000000     -3.128500000000000     -1.164400000000000
H      -1.605200000000000     -3.103900000000000     -0.039800000000000
H      -3.246800000000000     -2.980600000000000      0.569600000000000
H       4.157800000000000     -1.329700000000000      1.829200000000000
H       4.210000000000000      0.311800000000000      2.447000000000000
H      -4.944300000000000     -2.261000000000000     -1.123200000000000
H       1.849300000000000     -2.942900000000000     -0.736100000000000
H       3.131000000000000     -2.705700000000000      0.433800000000000
H       1.474500000000000     -2.847300000000000      0.982600000000000
H       4.802400000000000     -0.111000000000000     -1.799900000000000
H       4.579100000000000     -1.596400000000000     -0.897300000000000
H       4.551800000000000      1.245700000000000      0.246700000000000
H      -6.645100000000000     -1.247800000000000      0.266600000000000
H      -7.160800000000000     -1.321900000000000     -1.393900000000000
H      -4.028200000000000     -1.332300000000000     -3.125200000000000
H      -4.631000000000000      0.299000000000000     -2.778900000000000
H      -5.737100000000000     -1.003700000000000     -3.234000000000000
H       6.378500000000000      0.121600000000000      1.582800000000000
H      -5.998500000000000      1.209800000000000     -0.117900000000000
H      -6.647100000000000      1.068900000000000     -1.737400000000000
H       6.795100000000000      0.642500000000000     -1.287700000000000
H       6.730200000000000      1.873000000000000     -0.015300000000000
H      -8.234900000000000      0.649600000000000      0.828100000000000
H      -8.872400000000001      0.470100000000000     -0.796700000000000
H       8.726599999999999     -0.446100000000000     -0.152000000000000
H       8.672700000000001      0.778800000000000      1.119100000000000
H      -8.443099999999999      2.876900000000000     -1.263800000000000
H       9.122600000000000      1.335300000000000     -1.857500000000000
H       9.040900000000001      2.566700000000000     -0.601100000000000
H     -10.665300000000000      2.211100000000000     -0.372100000000000
H     -10.206899999999999      3.826400000000000      0.187200000000000
H     -10.083800000000000      2.439800000000000      1.286000000000000
H      -6.533300000000000      3.316400000000000      0.207200000000000
H      -7.853700000000000      4.366600000000000      0.698000000000000
H      -7.487400000000000      2.921100000000000      1.652200000000000
H      11.128800000000000      0.332200000000000     -0.745700000000000
H      11.047000000000001      1.565500000000000      0.514700000000000
H      11.382000000000000      3.226500000000000     -1.169300000000000
H      12.614900000000000      2.159500000000000     -1.118600000000000
