91

O      -0.337000000000000     -4.749300000000000     -0.905600000000000
O       0.722200000000000     -3.769900000000000      1.513300000000000
C      -4.554200000000000     -0.099200000000000      1.119000000000000
C      -2.458800000000000     -2.196400000000000      0.908700000000000
C      -5.496200000000000      2.137500000000000      0.455600000000000
C      -5.045600000000000      1.260800000000000      1.610900000000000
C      -4.210400000000000     -1.011100000000000      2.303500000000000
C      -3.345100000000000      0.065300000000000      0.189400000000000
C      -3.668100000000000     -2.361300000000000      1.837800000000000
C      -2.802600000000000     -1.284700000000000     -0.276000000000000
C      -6.624900000000000      1.519500000000000     -0.363800000000000
C      -6.108300000000000      3.459700000000000      0.907100000000000
C      -1.966200000000000     -3.556400000000000      0.417900000000000
C      -7.215200000000000      2.698700000000000     -1.131000000000000
C      -6.872300000000000      3.948900000000000     -0.319000000000000
C       5.025000000000000      0.603300000000000      0.219400000000000
C       1.536100000000000     -0.453000000000000     -1.265400000000000
C      -0.678400000000000     -3.450500000000000     -0.407800000000000
C       4.030900000000000      0.127400000000000     -0.838200000000000
C       2.604400000000000      0.094800000000000     -0.282700000000000
C       4.972900000000000      2.129400000000000      0.364100000000000
C       6.445600000000000      0.137200000000000     -0.123700000000000
C       0.535600000000000     -2.919600000000000      0.376900000000000
C       1.775900000000000     -1.944500000000000     -1.632900000000000
C       7.414500000000000      2.169200000000000      1.039000000000000
C       5.993800000000000      2.635200000000000      1.381600000000000
C       7.466800000000000      0.643000000000000      0.893700000000000
C       1.840800000000000     -2.905000000000000     -0.432500000000000
C       1.369300000000000      0.422900000000000     -2.563200000000000
C       1.132300000000000      1.915900000000000     -2.217800000000000
C       8.407700000000000      2.644600000000000      2.097600000000000
C       0.241200000000000     -0.106100000000000     -3.463800000000000
C      -0.131500000000000      2.193800000000000     -1.412400000000000
H      -5.355700000000000     -0.598800000000000      0.560300000000000
H      -1.672300000000000     -1.713800000000000      1.501000000000000
H      -4.653000000000000      2.380600000000000     -0.202000000000000
H      -4.253600000000000      1.772800000000000      2.172200000000000
H      -5.876900000000000      1.113400000000000      2.312500000000000
H      -5.101800000000000     -1.175300000000000      2.920700000000000
H      -3.464800000000000     -0.525100000000000      2.945800000000000
H      -2.548100000000000      0.619700000000000      0.701300000000000
H      -3.606000000000000      0.633200000000000     -0.709000000000000
H      -4.464800000000000     -2.911400000000000      1.320900000000000
H      -3.388100000000000     -2.957900000000000      2.714400000000000
H      -1.919700000000000     -1.083500000000000     -0.889000000000000
H      -3.542900000000000     -1.770500000000000     -0.924300000000000
H      -7.391400000000000      1.082800000000000      0.288300000000000
H      -6.279400000000000      0.741000000000000     -1.050700000000000
H      -5.352400000000000      4.180500000000000      1.233800000000000
H      -6.806400000000000      3.304700000000000      1.739000000000000
H      -2.742600000000000     -4.041800000000000     -0.188900000000000
H      -1.806700000000000     -4.233700000000000      1.266600000000000
H      -8.295700000000000      2.584300000000000     -1.265300000000000
H      -6.766300000000000      2.769900000000000     -2.128500000000000
H      -6.243600000000000      4.618200000000000     -0.917600000000000
H      -7.768600000000000      4.508800000000000     -0.033700000000000
H       4.761400000000000      0.154100000000000      1.186900000000000
H       0.575900000000000     -0.406100000000000     -0.739000000000000
H      -0.853600000000000     -2.834500000000000     -1.292200000000000
H       4.090400000000000      0.761200000000000     -1.729700000000000
H       4.308700000000000     -0.885000000000000     -1.151600000000000
H       2.309100000000000      1.094400000000000      0.050000000000000
H       2.587900000000000     -0.507800000000000      0.633000000000000
H       3.976100000000000      2.454500000000000      0.681300000000000
H       5.167900000000000      2.605600000000000     -0.605500000000000
H       6.724000000000000      0.493500000000000     -1.123800000000000
H       6.484500000000000     -0.958400000000000     -0.154300000000000
H       0.333400000000000     -1.921100000000000      0.770700000000000
H       0.996800000000000     -2.305500000000000     -2.309000000000000
H       2.710600000000000     -2.034600000000000     -2.199100000000000
H       7.703700000000000      2.618100000000000      0.079400000000000
H       5.713800000000000      2.278700000000000      2.381300000000000
H       5.958200000000000      3.730700000000000      1.414400000000000
H       7.274800000000000      0.167900000000000      1.864300000000000
H       8.471000000000000      0.331800000000000      0.581800000000000
H       2.297900000000000      0.368000000000000     -3.145500000000000
H       2.684500000000000     -2.653900000000000      0.220300000000000
H       2.068900000000000     -3.915800000000000     -0.793800000000000
H       1.064400000000000      2.479000000000000     -3.158000000000000
H       1.999000000000000      2.335200000000000     -1.696400000000000
H       8.170700000000000      2.228200000000000      3.082600000000000
H       8.394600000000001      3.736500000000000      2.179500000000000
H       9.427099999999999      2.340400000000000      1.837800000000000
H      -0.672800000000000     -0.306900000000000     -2.897000000000000
H       0.538700000000000     -1.028400000000000     -3.971900000000000
H       0.000600000000000      0.617300000000000     -4.250600000000000
H      -1.086300000000000     -5.064700000000000     -1.439100000000000
H       1.458300000000000     -3.405500000000000      2.033900000000000
H      -0.244300000000000      3.273100000000000     -1.264800000000000
H      -1.028000000000000      1.838200000000000     -1.928200000000000
H      -0.094200000000000      1.732500000000000     -0.421900000000000
