91

O      -1.220600000000000     -0.883900000000000     -0.444700000000000
O      -2.170400000000000      0.716100000000000     -1.818500000000000
C      -3.420100000000000     -0.169500000000000     -0.013600000000000
C      -3.997000000000000     -1.580000000000000      0.211100000000000
C      -4.703100000000000     -0.602700000000000     -0.695500000000000
C       2.579400000000000      0.535100000000000      0.481400000000000
C       2.599600000000000     -0.916800000000000      1.116300000000000
C       1.415500000000000     -1.948900000000000      0.812700000000000
C      -3.534600000000000      0.866100000000000      1.079900000000000
C      -0.012100000000000     -0.837700000000000     -1.210500000000000
C       0.966000000000000     -1.974200000000000     -0.720300000000000
C      -2.210700000000000     -0.051700000000000     -0.867700000000000
C       1.177600000000000      1.085600000000000      0.140700000000000
C       0.550100000000000      0.591000000000000     -1.155100000000000
C      -4.654500000000000     -1.909400000000000      1.531400000000000
C      -3.320300000000000     -2.773600000000000     -0.418800000000000
C      -3.651700000000000      2.328800000000000      0.593200000000000
C       3.167300000000000      1.509400000000000      1.548600000000000
C       3.496500000000000      0.668700000000000     -0.763900000000000
C       4.006300000000000     -1.551400000000000      0.935400000000000
C       1.894100000000000     -3.372800000000000      1.264800000000000
C       0.233500000000000     -1.687700000000000      1.787700000000000
C      -0.453000000000000     -1.048600000000000     -2.681700000000000
C       0.364600000000000     -3.355500000000000     -1.105300000000000
C       3.225500000000000      1.946600000000000     -1.551700000000000
C       2.251600000000000      1.552500000000000      2.758000000000000
C       4.569500000000000      1.067300000000000      1.924100000000000
C      -2.226000000000000      2.911000000000000      0.513700000000000
C      -4.470200000000000      3.185900000000000      1.573500000000000
C      -4.285800000000000      2.409100000000000     -0.805600000000000
C       4.250700000000000     -1.889600000000000     -0.513100000000000
C       3.446300000000000      3.214000000000000     -0.724700000000000
C       4.135900000000000      1.966700000000000     -2.781800000000000
H      -5.654300000000000     -0.208900000000000     -0.354900000000000
H      -4.683400000000000     -0.786100000000000     -1.764800000000000
H       2.549400000000000     -0.836300000000000      2.202100000000000
H      -2.690500000000000      0.749500000000000      1.772500000000000
H      -4.424100000000000      0.662300000000000      1.685900000000000
H       1.816400000000000     -1.851800000000000     -1.377200000000000
H       1.177500000000000      2.177000000000000      0.087900000000000
H       0.469300000000000      0.904400000000000      0.946700000000000
H      -0.157200000000000      1.362900000000000     -1.456700000000000
H       1.259600000000000      0.575000000000000     -1.978900000000000
H      -3.908300000000000     -1.913900000000000      2.332600000000000
H      -5.115100000000000     -2.902800000000000      1.495200000000000
H      -5.451300000000000     -1.208600000000000      1.798700000000000
H      -2.515000000000000     -3.132400000000000      0.226000000000000
H      -2.931000000000000     -2.572800000000000     -1.419400000000000
H      -4.041300000000000     -3.591800000000000     -0.529000000000000
H       3.223200000000000      2.552400000000000      1.302800000000000
H       4.565200000000000      0.637500000000000     -0.569600000000000
H       3.231500000000000     -0.107800000000000     -1.484000000000000
H       4.882200000000000     -1.014200000000000      1.266000000000000
H       4.093100000000000     -2.459000000000000      1.541900000000000
H       1.060200000000000     -4.084500000000000      1.303800000000000
H       2.644400000000000     -3.805800000000000      0.597400000000000
H       2.300300000000000     -3.353600000000000      2.283800000000000
H      -0.202100000000000     -0.695500000000000      1.730500000000000
H       0.555200000000000     -1.809000000000000      2.830100000000000
H      -0.576900000000000     -2.407600000000000      1.627900000000000
H      -1.300900000000000     -1.733300000000000     -2.785200000000000
H       0.381800000000000     -1.460400000000000     -3.264000000000000
H      -0.703500000000000     -0.129500000000000     -3.222400000000000
H       1.115300000000000     -4.147900000000000     -1.024400000000000
H       0.029800000000000     -3.407000000000000     -2.143500000000000
H      -0.481200000000000     -3.619000000000000     -0.468400000000000
H       2.236200000000000      2.077200000000000     -1.977900000000000
H       1.291400000000000      2.032100000000000      2.543500000000000
H       2.713600000000000      2.189500000000000      3.525300000000000
H       2.051300000000000      0.610900000000000      3.268100000000000
H       5.304000000000000      0.946700000000000      1.130400000000000
H       5.003900000000000      1.897100000000000      2.505400000000000
H       4.585700000000000      0.258200000000000      2.661200000000000
H      -2.258900000000000      3.969800000000000      0.229400000000000
H      -1.720900000000000      2.856300000000000      1.485200000000000
H      -1.592700000000000      2.415400000000000     -0.215400000000000
H      -4.501000000000000      4.235700000000000      1.261000000000000
H      -4.039300000000000      3.149700000000000      2.580300000000000
H      -5.503600000000000      2.827500000000000      1.639200000000000
H      -4.458800000000000      3.468300000000000     -1.046000000000000
H      -3.723400000000000      2.050700000000000     -1.654100000000000
H      -5.282700000000000      1.958200000000000     -0.817700000000000
H       3.473700000000000     -2.363600000000000     -1.089400000000000
H       4.971500000000000     -2.725500000000000     -0.459300000000000
H       4.853700000000000     -1.202000000000000     -1.105400000000000
H       4.383800000000000      3.190900000000000     -0.159400000000000
H       2.587800000000000      3.549200000000000     -0.142100000000000
H       3.586900000000000      4.054800000000000     -1.420500000000000
H       5.193700000000000      1.974000000000000     -2.496800000000000
H       3.950600000000000      2.855500000000000     -3.395300000000000
H       3.958900000000000      1.090400000000000     -3.415000000000000
