92

O      -0.998300000000000      0.138500000000000      2.394000000000000
N      -1.271400000000000     -0.602400000000000      1.458100000000000
C      -1.623800000000000      0.260300000000000     -0.793300000000000
C      -0.538500000000000     -0.183900000000000      0.212800000000000
C       0.256900000000000     -1.373100000000000     -0.413000000000000
C      -2.419000000000000      1.444300000000000     -0.164100000000000
C      -2.541000000000000     -0.947400000000000     -1.153600000000000
C       0.335200000000000      1.066100000000000      0.525400000000000
C      -0.912900000000000      0.729100000000000     -2.079600000000000
C       0.807300000000000     -2.478800000000000      0.531000000000000
C      -3.443900000000000      2.123800000000000     -1.088900000000000
C      -3.214100000000000     -1.650900000000000      0.037700000000000
C       1.603900000000000      0.824000000000000      1.349300000000000
C       2.077200000000000     -3.158700000000000     -0.041800000000000
C      -4.503600000000000      2.937300000000000     -0.329300000000000
C      -4.431700000000000     -2.497600000000000     -0.364600000000000
C      -0.247100000000000     -3.577500000000000      0.751700000000000
C       2.226800000000000      2.106000000000000      1.918400000000000
C       3.317300000000000     -2.271300000000000      0.068800000000000
C      -5.541500000000000      2.078300000000000      0.406900000000000
C      -5.669100000000000     -1.671900000000000     -0.744800000000000
C       2.522800000000000      3.229300000000000      0.919100000000000
C      -6.530200000000000      1.383000000000000     -0.539200000000000
C      -6.340400000000000     -0.999800000000000      0.460800000000000
C      -7.249400000000000      0.180000000000000      0.087900000000000
C       4.600200000000000     -2.988300000000000     -0.369200000000000
C       3.420000000000000      2.867900000000000     -0.267100000000000
C       5.859300000000000     -2.183200000000000     -0.018900000000000
C       4.810400000000000      2.366400000000000      0.131900000000000
C       5.977700000000000     -0.874800000000000     -0.806000000000000
C       5.685100000000000      2.157100000000000     -1.110100000000000
C       6.949200000000000      0.101300000000000     -0.138200000000000
C       7.026700000000000      1.467300000000000     -0.832000000000000
H       1.111700000000000     -0.922700000000000     -0.932600000000000
H      -0.258500000000000     -1.895400000000000     -1.217900000000000
H      -2.926200000000000      1.131200000000000      0.750200000000000
H      -1.771000000000000      2.274300000000000      0.123700000000000
H      -2.050100000000000     -1.698100000000000     -1.780100000000000
H      -3.322800000000000     -0.575100000000000     -1.822100000000000
H      -0.209400000000000      1.844700000000000      1.068000000000000
H       0.689200000000000      1.531300000000000     -0.396100000000000
H      -0.152400000000000      0.042100000000000     -2.457600000000000
H      -1.647100000000000      0.821000000000000     -2.891100000000000
H      -0.470100000000000      1.726000000000000     -1.993500000000000
H       1.070500000000000     -2.057100000000000      1.507100000000000
H      -3.939600000000000      1.402700000000000     -1.739900000000000
H      -2.905200000000000      2.808300000000000     -1.756800000000000
H      -3.551000000000000     -0.945100000000000      0.797000000000000
H      -2.529900000000000     -2.365200000000000      0.482300000000000
H       2.349300000000000      0.328200000000000      0.722300000000000
H       1.415400000000000      0.151100000000000      2.191300000000000
H       2.277900000000000     -4.084200000000000      0.512700000000000
H       1.912300000000000     -3.445700000000000     -1.087700000000000
H      -5.023200000000000      3.594300000000000     -1.037500000000000
H      -4.002000000000000      3.590800000000000      0.394800000000000
H      -4.693300000000000     -3.166400000000000      0.464900000000000
H      -4.157600000000000     -3.139600000000000     -1.210800000000000
H      -0.736000000000000     -3.874100000000000     -0.181600000000000
H      -1.000300000000000     -3.264200000000000      1.476200000000000
H       0.206800000000000     -4.477100000000000      1.183400000000000
H       1.552600000000000      2.507100000000000      2.686300000000000
H       3.150500000000000      1.837900000000000      2.445500000000000
H       3.428300000000000     -1.936600000000000      1.107300000000000
H       3.175600000000000     -1.382400000000000     -0.549700000000000
H      -5.030100000000000      1.361000000000000      1.050900000000000
H      -6.115800000000000      2.727200000000000      1.080300000000000
H      -5.400800000000000     -0.945200000000000     -1.513100000000000
H      -6.403100000000000     -2.341000000000000     -1.211700000000000
H       2.986400000000000      4.059000000000000      1.468100000000000
H       1.576100000000000      3.622900000000000      0.529300000000000
H      -6.044800000000000      1.074300000000000     -1.467500000000000
H      -7.288000000000000      2.118300000000000     -0.839700000000000
H      -5.606800000000000     -0.674100000000000      1.200900000000000
H      -6.950900000000000     -1.754600000000000      0.973500000000000
H      -8.017700000000000     -0.172300000000000     -0.611300000000000
H      -7.777700000000000      0.513900000000000      0.989400000000000
H       4.568100000000000     -3.188900000000000     -1.446400000000000
H       4.664300000000000     -3.959000000000000      0.137300000000000
H       3.529000000000000      3.763000000000000     -0.892600000000000
H       2.927000000000000      2.115000000000000     -0.892600000000000
H       6.745700000000000     -2.798000000000000     -0.216500000000000
H       5.854900000000000     -1.977900000000000      1.058700000000000
H       4.703200000000000      1.429700000000000      0.686300000000000
H       5.294500000000000      3.087100000000000      0.801100000000000
H       6.305200000000000     -1.089700000000000     -1.830100000000000
H       4.997300000000000     -0.403100000000000     -0.882700000000000
H       5.889000000000000      3.133600000000000     -1.567700000000000
H       5.132600000000000      1.585300000000000     -1.865200000000000
H       7.953000000000000     -0.340600000000000     -0.117500000000000
H       6.659600000000000      0.250400000000000      0.909000000000000
H       7.550700000000000      1.345000000000000     -1.788200000000000
H       7.650900000000000      2.131500000000000     -0.221600000000000
