92

O       9.771800000000001      0.276900000000000      1.785700000000000
N       9.744800000000000      2.610300000000000      1.330000000000000
C       2.448100000000000     -0.536800000000000      0.068400000000000
C      -0.505900000000000     -0.801800000000000     -0.156500000000000
C       1.602200000000000      0.610100000000000     -0.535400000000000
C       3.879400000000000     -0.565000000000000     -0.464100000000000
C      -1.897300000000000     -0.801900000000000      0.476200000000000
C       0.170200000000000      0.564700000000000      0.028600000000000
C       1.778400000000000     -1.906500000000000     -0.116500000000000
C       0.356100000000000     -1.920500000000000      0.439600000000000
C       4.702700000000000     -1.642200000000000      0.253400000000000
C       4.539200000000000      0.812200000000000     -0.317700000000000
C      -2.588900000000000     -2.154200000000000      0.262500000000000
C      -2.749600000000000      0.341300000000000     -0.089200000000000
C       1.585600000000000      0.630900000000000     -2.068700000000000
C      -4.854500000000000     -1.020600000000000      0.276100000000000
C      -4.002200000000000     -2.163500000000000      0.842200000000000
C      -4.163000000000000      0.331800000000000      0.490200000000000
C       6.812700000000000     -0.279900000000000     -0.078900000000000
C       6.153200000000000     -1.657000000000000     -0.225900000000000
C       5.989700000000000      0.797300000000000     -0.796600000000000
C      -6.245500000000000     -1.021300000000000      0.907200000000000
C       8.244600000000000     -0.308200000000000     -0.610000000000000
C       0.766100000000000      1.792300000000000     -2.590800000000000
C      -7.198700000000000      0.036800000000000      0.307800000000000
C       8.955000000000000      1.022600000000000     -0.355700000000000
C      -8.542299999999999      0.052900000000000      1.074900000000000
C      -7.356300000000000     -0.145300000000000     -1.216700000000000
C       9.068600000000000      1.332400000000000      1.140500000000000
C      -9.551399999999999      1.104300000000000      0.601300000000000
C      -7.983300000000000     -1.473600000000000     -1.619000000000000
C      -8.961399999999999      2.513100000000000      0.693600000000000
C      -9.968100000000000      3.568200000000000      0.263600000000000
H       2.497400000000000     -0.351300000000000      1.152300000000000
H      -0.615100000000000     -0.991700000000000     -1.232500000000000
H       2.017000000000000      1.566300000000000     -0.190800000000000
H       3.868000000000000     -0.828900000000000     -1.530200000000000
H      -1.796000000000000     -0.641600000000000      1.559300000000000
H       0.227200000000000      0.779700000000000      1.105600000000000
H      -0.410400000000000      1.384400000000000     -0.393800000000000
H       2.318400000000000     -2.694500000000000      0.415800000000000
H       1.764000000000000     -2.188600000000000     -1.176100000000000
H      -0.058800000000000     -2.907300000000000      0.212300000000000
H       0.393000000000000     -1.827700000000000      1.532500000000000
H      -2.044200000000000     -2.965000000000000      0.755300000000000
H      -2.632500000000000     -2.393500000000000     -0.807500000000000
H      -2.801400000000000      0.272600000000000     -1.183100000000000
H      -2.329400000000000      1.319900000000000      0.159000000000000
H       4.679200000000000     -1.479900000000000      1.338300000000000
H       4.307400000000000     -2.644400000000000      0.065100000000000
H       4.509800000000000      1.131800000000000      0.732000000000000
H       4.023000000000000      1.580700000000000     -0.899800000000000
H       2.600000000000000      0.745000000000000     -2.463100000000000
H       1.196800000000000     -0.303900000000000     -2.485200000000000
H      -4.934200000000000     -1.206300000000000     -0.800900000000000
H      -4.475700000000000     -3.127800000000000      0.621500000000000
H      -3.944800000000000     -2.080900000000000      1.935200000000000
H      -4.119200000000000      0.567700000000000      1.561100000000000
H      -4.715700000000000      1.141500000000000      0.003800000000000
H       6.811700000000000     -0.062900000000000      0.994700000000000
H       6.714800000000000     -2.403800000000000      0.348300000000000
H       6.183900000000000     -1.975400000000000     -1.276000000000000
H       6.012500000000000      0.630300000000000     -1.881000000000000
H       6.398700000000000      1.795900000000000     -0.615000000000000
H      -6.149800000000000     -0.836400000000000      1.985900000000000
H      -6.693600000000000     -2.018500000000000      0.818300000000000
H       8.243700000000000     -0.509800000000000     -1.688600000000000
H       8.803599999999999     -1.128200000000000     -0.143300000000000
H      -0.309300000000000      1.614400000000000     -2.497700000000000
H       0.963800000000000      1.929200000000000     -3.659900000000000
H       1.019600000000000      2.730700000000000     -2.087500000000000
H      -6.740300000000000      1.015800000000000      0.473800000000000
H       8.481400000000001      1.846900000000000     -0.898400000000000
H       9.965800000000000      0.926200000000000     -0.776100000000000
H      -9.014799999999999     -0.935200000000000      1.021900000000000
H      -8.335300000000000      0.227300000000000      2.139200000000000
H      -6.395500000000000     -0.027500000000000     -1.727500000000000
H      -7.978200000000000      0.663300000000000     -1.617900000000000
H       8.085200000000000      1.422300000000000      1.607000000000000
H      -9.879899999999999      0.892400000000000     -0.421800000000000
H     -10.444900000000001      1.040700000000000      1.234500000000000
H      -8.977399999999999     -1.604300000000000     -1.182900000000000
H      -7.358700000000000     -2.323300000000000     -1.330300000000000
H      -8.097600000000000     -1.510500000000000     -2.707700000000000
H      -8.085400000000000      2.615700000000000      0.045900000000000
H      -8.638299999999999      2.718700000000000      1.720500000000000
H      10.687600000000000      2.555900000000000      0.946800000000000
H       9.853700000000000      2.789300000000000      2.327200000000000
H       9.935700000000001      0.565400000000000      2.699300000000000
H      -9.526199999999999      4.566900000000000      0.336600000000000
H     -10.282900000000000      3.410700000000000     -0.773000000000000
H     -10.858000000000001      3.543500000000000      0.900800000000000
