92

N      -4.355900000000000      1.301900000000000      0.554700000000000
N       4.324600000000000      1.228900000000000     -0.555200000000000
C      -5.600900000000000      1.229000000000000     -0.217200000000000
C       5.572700000000000      1.187000000000000      0.214100000000000
C      -5.864200000000000     -0.233800000000000     -0.644200000000000
C      -6.728600000000000      1.884400000000000      0.608500000000000
C       5.870700000000000     -0.268200000000000      0.644300000000000
C       6.683000000000000      1.866000000000000     -0.616000000000000
C      -6.196500000000000     -1.196500000000000      0.502300000000000
C      -8.088600000000000      1.908400000000000     -0.108000000000000
C       6.222700000000000     -1.226000000000000     -0.500300000000000
C       8.043699999999999      1.923600000000000      0.097300000000000
C      -6.473900000000000     -2.635400000000000      0.047800000000000
C      -9.234999999999999      1.409200000000000      0.783700000000000
C       6.534400000000000     -2.656800000000000     -0.042700000000000
C       9.199299999999999      1.448600000000000     -0.795600000000000
C      -7.670800000000000     -2.863900000000000     -0.887300000000000
C     -10.353999999999999      0.705600000000000      0.003700000000000
C       7.738300000000000     -2.855000000000000      0.890300000000000
C      10.336100000000000      0.773300000000000     -0.016300000000000
C      -3.204500000000000      1.289900000000000     -0.331500000000000
C       3.166600000000000      1.194900000000000      0.330200000000000
C      -9.044100000000000     -2.997900000000000     -0.211300000000000
C      -9.947200000000000     -0.635000000000000     -0.627500000000000
C       9.112900000000000     -2.959000000000000      0.211500000000000
C       9.961900000000000     -0.574700000000000      0.619400000000000
C      -9.650800000000000     -1.732500000000000      0.399600000000000
C       9.688700000000001     -1.681500000000000     -0.404200000000000
C      -1.912300000000000      1.325100000000000      0.483900000000000
C       1.875000000000000      1.274100000000000     -0.482000000000000
C      -0.649300000000000      1.304700000000000     -0.383000000000000
C       0.646000000000000      1.261600000000000      0.431000000000000
H      -5.502000000000000      1.832500000000000     -1.130500000000000
H       5.461700000000000      1.790400000000000      1.126100000000000
H      -5.011900000000000     -0.634700000000000     -1.204500000000000
H      -6.685500000000000     -0.233700000000000     -1.365900000000000
H      -6.450400000000000      2.924700000000000      0.827400000000000
H      -6.804000000000000      1.393300000000000      1.586100000000000
H       5.027200000000000     -0.685200000000000      1.206400000000000
H       6.692700000000000     -0.247600000000000      1.365100000000000
H       6.380300000000000      2.899100000000000     -0.837100000000000
H       6.767600000000000      1.374000000000000     -1.592400000000000
H      -7.038400000000000     -0.823100000000000      1.082900000000000
H      -5.345000000000000     -1.227300000000000      1.193500000000000
H      -8.047700000000001      1.357900000000000     -1.048900000000000
H      -8.310600000000001      2.942500000000000     -0.403100000000000
H       7.054500000000000     -0.834800000000000     -1.083700000000000
H       5.370700000000000     -1.278500000000000     -1.189700000000000
H       8.017600000000000      1.374800000000000      1.039700000000000
H       8.242200000000000      2.963400000000000      0.389100000000000
H      -6.586200000000000     -3.269500000000000      0.935900000000000
H      -5.574100000000000     -2.996500000000000     -0.467700000000000
H      -9.664199999999999      2.273400000000000      1.306700000000000
H      -8.867900000000001      0.741800000000000      1.568500000000000
H       6.659300000000000     -3.290400000000000     -0.929400000000000
H       5.644300000000000     -3.037300000000000      0.475800000000000
H       9.607200000000001      2.321000000000000     -1.321900000000000
H       8.846100000000000      0.770700000000000     -1.577800000000000
H      -4.335500000000000      2.160200000000000      1.105100000000000
H       4.285600000000000      2.085900000000000     -1.106900000000000
H      -7.489200000000000     -3.824400000000000     -1.389900000000000
H      -7.697900000000000     -2.126600000000000     -1.693100000000000
H     -10.710699999999999      1.375300000000000     -0.788400000000000
H     -11.202900000000000      0.538000000000000      0.677800000000000
H       7.580100000000000     -3.818000000000000      1.395800000000000
H       7.750100000000000     -2.115000000000000      1.694100000000000
H      10.678800000000001      1.453200000000000      0.773200000000000
H      11.187099999999999      0.623600000000000     -0.691900000000000
H      -3.226000000000000      2.159600000000000     -0.999800000000000
H      -3.183300000000000      0.391700000000000     -0.956400000000000
H       3.144300000000000      0.273200000000000      0.920200000000000
H       3.197900000000000      2.039800000000000      1.029400000000000
H      -8.977300000000000     -3.763500000000000      0.571900000000000
H      -9.749900000000000     -3.389200000000000     -0.955600000000000
H      -9.095499999999999     -0.483800000000000     -1.292900000000000
H     -10.770700000000000     -0.976800000000000     -1.267300000000000
H       9.061999999999999     -3.728100000000000     -0.569500000000000
H       9.829100000000000     -3.331800000000000      0.955300000000000
H       9.108400000000000     -0.441500000000000      1.286400000000000
H      10.794499999999999     -0.895600000000000      1.258200000000000
H     -10.596600000000000     -2.008000000000000      0.884500000000000
H      -9.008699999999999     -1.376300000000000      1.204600000000000
H      10.639400000000000     -1.936400000000000     -0.890500000000000
H       9.036600000000000     -1.342500000000000     -1.208700000000000
H      -1.895700000000000      2.224700000000000      1.112800000000000
H      -1.889400000000000      0.463500000000000      1.163800000000000
H       1.868500000000000      2.190000000000000     -1.086600000000000
H       1.823600000000000      0.427100000000000     -1.177900000000000
H      -0.684000000000000      0.431800000000000     -1.046800000000000
H      -0.645400000000000      2.192500000000000     -1.027500000000000
H       0.655300000000000      0.358500000000000      1.053100000000000
H       0.681600000000000      2.122700000000000      1.109000000000000
