92

O       4.963400000000000      1.092000000000000     -2.323500000000000
N       5.343100000000000      1.319400000000000     -1.182500000000000
C      -1.829900000000000     -1.489200000000000      0.564500000000000
C      -1.566200000000000     -2.662300000000000     -0.423400000000000
C      -3.030800000000000     -1.056900000000000     -0.341100000000000
C      -2.339600000000000     -1.847000000000000     -1.503200000000000
C      -0.119800000000000     -2.964100000000000     -0.809800000000000
C      -4.449400000000000     -1.445900000000000      0.086900000000000
C      -2.097700000000000     -1.862500000000000      2.011100000000000
C      -3.141800000000000     -2.678600000000000     -2.487400000000000
C       0.675400000000000     -3.492700000000000      0.383200000000000
C      -5.508700000000000     -0.841200000000000     -0.847200000000000
C      -2.201800000000000     -0.626200000000000      2.902100000000000
C       2.068700000000000     -4.006100000000000      0.005600000000000
C      -6.204600000000000      0.411200000000000     -0.291900000000000
C      -2.493800000000000     -1.034000000000000      4.340600000000000
C       2.953900000000000     -3.022700000000000     -0.766500000000000
C      -5.297200000000000      1.606800000000000      0.010900000000000
C       3.246600000000000     -1.724800000000000     -0.005700000000000
C      -4.672500000000000      2.232900000000000     -1.240300000000000
C       4.124300000000000     -0.791500000000000     -0.851000000000000
C       4.513300000000000      0.547300000000000     -0.178300000000000
C      -3.734200000000000      3.405300000000000     -0.926200000000000
C       5.391000000000000      0.302900000000000      1.064000000000000
C       3.308500000000000      1.435600000000000      0.225700000000000
C      -2.484400000000000      2.986800000000000     -0.144800000000000
C       2.260000000000000      1.676800000000000     -0.873200000000000
C       6.565700000000000     -0.597000000000000      0.706200000000000
C       5.871200000000000      1.630000000000000      1.634700000000000
C       1.309900000000000      2.841900000000000     -0.560400000000000
C      -1.517400000000000      4.156100000000000      0.049200000000000
C       0.494500000000000      2.648800000000000      0.719700000000000
C      -0.399700000000000      3.849000000000000      1.051900000000000
H      -1.013600000000000     -0.750700000000000      0.514000000000000
H      -2.096400000000000     -3.580600000000000     -0.130600000000000
H      -2.988100000000000      0.023600000000000     -0.509100000000000
H      -1.677900000000000     -1.175500000000000     -2.072900000000000
H       0.357900000000000     -2.057900000000000     -1.199700000000000
H      -0.111500000000000     -3.706500000000000     -1.616800000000000
H      -4.645300000000000     -1.116900000000000      1.113000000000000
H      -4.549000000000000     -2.537600000000000      0.090500000000000
H      -2.994700000000000     -2.484800000000000      2.103700000000000
H      -1.269500000000000     -2.478200000000000      2.382200000000000
H      -3.815400000000000     -3.377700000000000     -1.983200000000000
H      -2.471900000000000     -3.265100000000000     -3.125000000000000
H      -3.738700000000000     -2.036700000000000     -3.142000000000000
H       0.122600000000000     -4.312500000000000      0.859000000000000
H       0.769100000000000     -2.709100000000000      1.143400000000000
H      -6.291100000000000     -1.596000000000000     -0.999200000000000
H      -5.096000000000000     -0.626100000000000     -1.837600000000000
H      -1.266500000000000     -0.055400000000000      2.865200000000000
H      -2.994800000000000      0.038400000000000      2.542000000000000
H       1.954700000000000     -4.912700000000000     -0.602000000000000
H       2.587500000000000     -4.313500000000000      0.922000000000000
H      -6.727100000000000      0.135000000000000      0.632900000000000
H      -6.982500000000000      0.721600000000000     -1.000500000000000
H      -1.699100000000000     -1.674000000000000      4.737100000000000
H      -3.441800000000000     -1.577000000000000      4.410100000000000
H      -2.563900000000000     -0.146400000000000      4.977100000000000
H       3.903900000000000     -3.525000000000000     -0.989500000000000
H       2.496900000000000     -2.793900000000000     -1.736300000000000
H      -4.529200000000000      1.302900000000000      0.727300000000000
H      -5.898300000000000      2.372800000000000      0.517200000000000
H       2.310100000000000     -1.219100000000000      0.247000000000000
H       3.746400000000000     -1.975900000000000      0.935400000000000
H      -5.477400000000000      2.598800000000000     -1.889900000000000
H      -4.123900000000000      1.484400000000000     -1.820800000000000
H       5.005600000000000     -1.339000000000000     -1.208900000000000
H       3.541600000000000     -0.598900000000000     -1.763800000000000
H      -4.281800000000000      4.172800000000000     -0.366000000000000
H      -3.426900000000000      3.863500000000000     -1.874400000000000
H       4.809300000000000     -0.197600000000000      1.848200000000000
H       2.808900000000000      0.991300000000000      1.095400000000000
H       3.658700000000000      2.427700000000000      0.535100000000000
H      -2.771800000000000      2.598000000000000      0.837800000000000
H      -1.976000000000000      2.179300000000000     -0.683000000000000
H       1.669200000000000      0.766700000000000     -1.028300000000000
H       2.736900000000000      1.910700000000000     -1.828900000000000
H       7.157700000000000     -0.227900000000000     -0.136900000000000
H       6.255600000000000     -1.624600000000000      0.494900000000000
H       7.251000000000000     -0.669100000000000      1.559700000000000
H       6.417600000000000      2.249700000000000      0.917400000000000
H       6.563400000000000      1.442300000000000      2.465300000000000
H       5.058700000000000      2.221700000000000      2.065800000000000
H       0.631200000000000      2.959000000000000     -1.413200000000000
H       1.890000000000000      3.770200000000000     -0.489400000000000
H      -1.091900000000000      4.450800000000000     -0.916700000000000
H      -2.072200000000000      5.026500000000000      0.421300000000000
H       1.173700000000000      2.509600000000000      1.568500000000000
H      -0.103000000000000      1.733200000000000      0.649300000000000
H       0.227300000000000      4.742900000000000      1.159100000000000
H      -0.853200000000000      3.674400000000000      2.036000000000000
