92

N       2.378800000000000     -1.676900000000000      0.963500000000000
N      -5.075800000000000      0.749100000000000     -0.021200000000000
C      -0.087400000000000     -0.921200000000000     -0.450800000000000
C      -2.182700000000000      0.464400000000000     -0.473000000000000
C      -0.954900000000000      0.030900000000000     -1.287700000000000
C       1.099300000000000     -1.615700000000000     -1.218600000000000
C      -3.012800000000000     -0.701900000000000      0.183500000000000
C       1.946700000000000     -2.527100000000000     -0.190900000000000
C      -4.296400000000000     -0.087800000000000      0.945500000000000
C       0.417600000000000     -0.169800000000000      0.784400000000000
C      -3.071400000000000      1.347700000000000     -1.353800000000000
C      -0.106800000000000      1.228400000000000     -1.756800000000000
C       1.262900000000000     -1.056000000000000      1.686500000000000
C      -4.298900000000000      1.847400000000000     -0.607400000000000
C       2.016400000000000     -0.548800000000000     -1.878500000000000
C       0.498900000000000     -2.455900000000000     -2.377300000000000
C      -3.463300000000000     -1.722600000000000     -0.898400000000000
C      -2.078600000000000     -1.473600000000000      1.153300000000000
C       1.126600000000000     -3.763000000000000      0.273200000000000
C       3.217300000000000     -3.095200000000000     -0.889000000000000
C      -3.871100000000000      0.721500000000000      2.202500000000000
C      -5.217800000000000     -1.230400000000000      1.465100000000000
C       0.513500000000000      2.083200000000000     -0.644500000000000
C       3.280300000000000     -2.314600000000000      1.926900000000000
C      -6.353300000000000      1.273100000000000      0.469600000000000
C       1.396800000000000      3.216600000000000     -1.171400000000000
C       2.012300000000000      4.072200000000000     -0.058600000000000
C       2.844000000000000      3.311500000000000      0.979900000000000
C       4.006800000000000      2.527000000000000      0.367000000000000
C       4.790000000000000      1.704700000000000      1.395000000000000
C       5.903900000000000      0.861300000000000      0.773200000000000
C       5.358900000000000     -0.078500000000000     -0.291500000000000
H      -0.639600000000000     -1.811000000000000     -0.272800000000000
H      -1.860900000000000      1.116900000000000      0.341900000000000
H      -1.309700000000000     -0.474700000000000     -2.191500000000000
H       1.312900000000000      0.339500000000000      0.539800000000000
H      -0.231600000000000      0.492800000000000      1.353700000000000
H      -2.555500000000000      2.250600000000000     -1.688500000000000
H      -3.380700000000000      0.807800000000000     -2.257200000000000
H       0.571600000000000      1.044000000000000     -2.575400000000000
H      -0.768400000000000      1.911500000000000     -2.300900000000000
H       0.641000000000000     -1.809400000000000      2.182700000000000
H       1.661100000000000     -0.421900000000000      2.492400000000000
H      -4.917100000000000      2.389500000000000     -1.335000000000000
H      -4.007200000000000      2.581800000000000      0.153200000000000
H       2.289200000000000      0.300800000000000     -1.268300000000000
H       1.694100000000000     -0.282100000000000     -2.886700000000000
H       2.984500000000000     -0.991500000000000     -2.130300000000000
H       1.262500000000000     -3.033700000000000     -2.904700000000000
H       0.028000000000000     -1.826700000000000     -3.139800000000000
H      -0.266400000000000     -3.156500000000000     -2.028700000000000
H      -2.624100000000000     -2.110800000000000     -1.482300000000000
H      -4.177500000000000     -1.288000000000000     -1.604100000000000
H      -3.940300000000000     -2.598400000000000     -0.445000000000000
H      -1.724900000000000     -2.459400000000000      0.844800000000000
H      -2.732400000000000     -1.873100000000000      1.941400000000000
H      -1.458200000000000     -0.880600000000000      1.808500000000000
H       0.862600000000000     -4.408300000000000     -0.571200000000000
H       1.706400000000000     -4.393900000000000      0.956600000000000
H       0.205100000000000     -3.504600000000000      0.794400000000000
H       4.001700000000000     -2.357500000000000     -1.056700000000000
H       3.673600000000000     -3.894600000000000     -0.291400000000000
H       2.986600000000000     -3.554500000000000     -1.853900000000000
H      -4.737100000000000      1.142600000000000      2.724800000000000
H      -3.360600000000000      0.088200000000000      2.935600000000000
H      -3.200300000000000      1.552800000000000      1.971800000000000
H      -5.739000000000000     -1.734100000000000      0.642900000000000
H      -4.688700000000000     -1.999200000000000      2.031600000000000
H      -5.988700000000000     -0.848300000000000      2.145300000000000
H       1.319000000000000      1.690400000000000     -0.100900000000000
H      -0.243200000000000      2.502800000000000      0.024000000000000
H       2.807100000000000     -3.145200000000000      2.460200000000000
H       4.200500000000000     -2.675300000000000      1.459200000000000
H       3.609900000000000     -1.585600000000000      2.677200000000000
H      -6.877600000000000      1.806600000000000     -0.332600000000000
H      -7.037500000000000      0.475300000000000      0.771200000000000
H      -6.232000000000000      1.971700000000000      1.303300000000000
H       0.786600000000000      3.872900000000000     -1.804900000000000
H       2.184600000000000      2.821200000000000     -1.824400000000000
H       1.208700000000000      4.603800000000000      0.466100000000000
H       2.639600000000000      4.843600000000000     -0.522400000000000
H       3.250700000000000      4.040800000000000      1.692200000000000
H       2.205000000000000      2.646800000000000      1.572400000000000
H       4.689700000000000      3.224400000000000     -0.133500000000000
H       3.620200000000000      1.860600000000000     -0.404000000000000
H       4.098000000000000      1.045500000000000      1.933700000000000
H       5.228300000000000      2.377400000000000      2.141800000000000
H       6.382100000000000      0.273200000000000      1.564800000000000
H       6.674200000000000      1.507000000000000      0.337200000000000
H       5.139400000000000      0.453200000000000     -1.222200000000000
H       6.098600000000000     -0.850400000000000     -0.525800000000000
H       4.453300000000000     -0.560100000000000      0.057800000000000
