92

N      -1.696100000000000     -4.060200000000000      0.281600000000000
N      -4.438200000000000      3.175300000000000      0.203700000000000
C      -1.333200000000000      0.187900000000000     -0.464200000000000
C      -1.558800000000000     -1.223000000000000      0.077500000000000
C      -2.662700000000000      0.941000000000000     -0.510600000000000
C      -0.250100000000000     -2.033000000000000      0.076600000000000
C      -2.666000000000000     -1.940500000000000     -0.692800000000000
C      -3.258200000000000      1.076000000000000      0.894600000000000
C      -2.472300000000000      2.339800000000000     -1.105800000000000
C      -0.412000000000000     -3.548700000000000     -0.200000000000000
C      -2.916100000000000     -3.365200000000000     -0.150200000000000
C      -4.569600000000000      1.889300000000000      0.916000000000000
C      -3.772100000000000      3.171900000000000     -1.113300000000000
C      -0.312000000000000      0.982800000000000      0.370600000000000
C       1.075000000000000      0.332800000000000      0.417900000000000
C       0.678600000000000     -4.305100000000000      0.589200000000000
C      -0.193000000000000     -3.875900000000000     -1.690200000000000
C      -3.820700000000000     -3.300000000000000      1.096900000000000
C      -3.648900000000000     -4.197300000000000     -1.218900000000000
C      -5.753400000000000      1.059700000000000      0.388200000000000
C      -4.895800000000000      2.237200000000000      2.387600000000000
C      -3.399700000000000      4.642200000000000     -1.417500000000000
C      -4.722500000000000      2.718400000000000     -2.235500000000000
C       2.064700000000000      1.201400000000000      1.199900000000000
C       3.479300000000000      0.615300000000000      1.248200000000000
C       4.473000000000000      1.496500000000000      2.009400000000000
C       5.890700000000000      0.916300000000000      2.046500000000000
C       6.546500000000000      0.679200000000000      0.682200000000000
C       7.935900000000000      0.035600000000000      0.714300000000000
C       8.561299999999999     -0.130700000000000     -0.672100000000000
C       8.730499999999999      1.220600000000000     -1.367900000000000
C       9.315700000000000      1.060100000000000     -2.761800000000000
H      -0.946500000000000      0.113600000000000     -1.490700000000000
H      -1.857500000000000     -1.159900000000000      1.130700000000000
H      -3.360600000000000      0.433500000000000     -1.178100000000000
H       0.127600000000000     -1.999000000000000      1.102600000000000
H       0.469300000000000     -1.674300000000000     -0.661100000000000
H      -2.410400000000000     -1.965000000000000     -1.758700000000000
H      -3.624500000000000     -1.418400000000000     -0.625100000000000
H      -2.557900000000000      1.584500000000000      1.564600000000000
H      -3.467500000000000      0.099100000000000      1.341700000000000
H      -2.064600000000000      2.263300000000000     -2.122100000000000
H      -1.752200000000000      2.918600000000000     -0.520800000000000
H      -0.637600000000000      1.102900000000000      1.407700000000000
H      -0.149500000000000      1.980500000000000     -0.041600000000000
H      -1.772800000000000     -5.064800000000000      0.128700000000000
H      -3.928000000000000      3.818700000000000      0.810900000000000
H       1.466900000000000      0.164800000000000     -0.590600000000000
H       1.124800000000000     -0.558800000000000      1.018500000000000
H       1.679300000000000     -3.948100000000000      0.318700000000000
H       0.561900000000000     -4.171600000000000      1.671700000000000
H       0.646800000000000     -5.382800000000000      0.387300000000000
H      -0.863400000000000     -3.323100000000000     -2.351700000000000
H       0.830600000000000     -3.630200000000000     -1.997600000000000
H      -0.340900000000000     -4.944400000000000     -1.887300000000000
H      -4.051000000000000     -4.302700000000000      1.477700000000000
H      -3.351400000000000     -2.740100000000000      1.913500000000000
H      -4.775700000000000     -2.812500000000000      0.868900000000000
H      -3.894200000000000     -5.200400000000000     -0.850200000000000
H      -4.589800000000000     -3.716600000000000     -1.511400000000000
H      -3.045600000000000     -4.317600000000000     -2.124600000000000
H      -6.657600000000000      1.672600000000000      0.294200000000000
H      -5.990000000000000      0.238900000000000      1.076500000000000
H      -5.558300000000000      0.595700000000000     -0.579200000000000
H      -5.832500000000000      2.802200000000000      2.466200000000000
H      -4.104600000000000      2.842000000000000      2.847200000000000
H      -5.004600000000000      1.329900000000000      2.993400000000000
H      -2.728300000000000      5.058000000000000     -0.656500000000000
H      -2.888700000000000      4.728100000000000     -2.383700000000000
H      -4.291100000000000      5.280100000000000     -1.456400000000000
H      -4.920800000000000      1.646400000000000     -2.230600000000000
H      -5.685100000000000      3.239500000000000     -2.174100000000000
H      -4.295500000000000      2.945000000000000     -3.220100000000000
H       2.111500000000000      2.196900000000000      0.740600000000000
H       1.699100000000000      1.345100000000000      2.224800000000000
H       3.447800000000000     -0.378100000000000      1.711900000000000
H       3.815400000000000      0.476500000000000      0.215300000000000
H       4.505700000000000      2.490600000000000      1.547300000000000
H       4.121100000000000      1.636000000000000      3.038700000000000
H       6.526900000000000      1.592400000000000      2.631100000000000
H       5.865400000000000     -0.034000000000000      2.594300000000000
H       6.585600000000000      1.653900000000000      0.186900000000000
H       5.906200000000000      0.037500000000000      0.067900000000000
H       7.864400000000000     -0.949700000000000      1.190400000000000
H       8.600600000000000      0.641300000000000      1.342400000000000
H       7.931300000000000     -0.789200000000000     -1.281900000000000
H       9.536899999999999     -0.620400000000000     -0.570000000000000
H       9.381100000000000      1.870600000000000     -0.771700000000000
H       7.771700000000000      1.732800000000000     -1.485100000000000
H      10.300700000000001      0.584200000000000     -2.720600000000000
H       9.431300000000000      2.037800000000000     -3.240300000000000
H       8.664199999999999      0.447700000000000     -3.393400000000000
