92

N      -8.150800000000000      0.176800000000000     -0.005700000000000
N       8.161400000000000      0.182400000000000     -0.007800000000000
C      -9.131300000000000      1.180000000000000     -0.490800000000000
C      -8.672800000000001     -1.100900000000000      0.546500000000000
C       9.157600000000000      1.174700000000000      0.467700000000000
C       8.663800000000000     -1.102100000000000     -0.562400000000000
C     -10.450600000000000      1.110500000000000      0.313800000000000
C     -10.123300000000000     -1.398000000000000      0.101500000000000
C      10.469400000000000      1.088500000000000     -0.347300000000000
C      10.114400000000000     -1.415700000000000     -0.128700000000000
C     -11.107600000000000     -0.260500000000000      0.324400000000000
C      11.110099999999999     -0.290100000000000     -0.361100000000000
C      -6.917400000000000      0.088000000000000     -0.780600000000000
C       6.933400000000000      0.109400000000000      0.777000000000000
C      -9.432200000000000      1.052300000000000     -2.001300000000000
C      -8.562300000000000      2.601600000000000     -0.244900000000000
C      -8.602800000000000     -0.980400000000000      2.086500000000000
C      -7.847100000000000     -2.363200000000000      0.176200000000000
C       8.603500000000000      2.602700000000000      0.224400000000000
C       9.469200000000001      1.045600000000000      1.976100000000000
C       8.582900000000000     -0.982800000000000     -2.102000000000000
C       7.826300000000000     -2.354000000000000     -0.183600000000000
C      -5.707400000000000      0.045700000000000      0.151100000000000
C       5.688500000000000      0.064800000000000     -0.110800000000000
C      -4.400800000000000     -0.025600000000000     -0.642100000000000
C       4.382400000000000      0.006500000000000      0.687300000000000
C      -3.185300000000000     -0.031000000000000      0.286600000000000
C       3.166500000000000     -0.021400000000000     -0.241500000000000
C      -1.878600000000000     -0.068600000000000     -0.507500000000000
C       1.859800000000000     -0.050200000000000      0.553400000000000
C      -0.662800000000000     -0.040300000000000      0.420200000000000
C       0.644000000000000     -0.044400000000000     -0.374700000000000
H     -11.174200000000001      1.844800000000000     -0.064900000000000
H     -10.261400000000000      1.414200000000000      1.352100000000000
H     -10.126099999999999     -1.658000000000000     -0.965000000000000
H     -10.507300000000001     -2.291800000000000      0.611600000000000
H      11.204700000000001      1.814700000000000      0.024500000000000
H      10.275499999999999      1.392900000000000     -1.384400000000000
H      10.122600000000000     -1.674400000000000      0.938100000000000
H      10.483700000000001     -2.314500000000000     -0.640800000000000
H     -11.627500000000000     -0.397400000000000      1.280600000000000
H     -11.884800000000000     -0.308300000000000     -0.448200000000000
H      11.620699999999999     -0.434500000000000     -1.321100000000000
H      11.892799999999999     -0.346000000000000      0.405400000000000
H      -6.771600000000000      0.977100000000000     -1.403700000000000
H      -6.920100000000000     -0.735300000000000     -1.501500000000000
H       6.804300000000000      1.004700000000000      1.394800000000000
H       6.944600000000000     -0.704300000000000      1.509000000000000
H      -8.563599999999999      1.293800000000000     -2.622800000000000
H     -10.229300000000000      1.745300000000000     -2.296300000000000
H      -9.760400000000001      0.047700000000000     -2.279800000000000
H      -7.678400000000000      2.818000000000000     -0.853000000000000
H      -8.282600000000000      2.738600000000000      0.806600000000000
H      -9.307700000000001      3.368600000000000     -0.488000000000000
H      -9.181900000000001     -0.138100000000000      2.474600000000000
H      -8.993200000000000     -1.885100000000000      2.567800000000000
H      -7.570900000000000     -0.849000000000000      2.431900000000000
H      -6.828100000000000     -2.372700000000000      0.561000000000000
H      -7.823000000000000     -2.536300000000000     -0.905200000000000
H      -8.320600000000001     -3.255800000000000      0.607600000000000
H       9.360300000000001      3.361000000000000      0.459000000000000
H       8.315700000000000      2.741100000000000     -0.824800000000000
H       7.728100000000000      2.831300000000000      0.840200000000000
H       9.788000000000000      0.037600000000000      2.253400000000000
H      10.276500000000000      1.729800000000000      2.263700000000000
H       8.608400000000000      1.297900000000000      2.604200000000000
H       7.549500000000000     -0.836900000000000     -2.437600000000000
H       8.955900000000000     -1.893800000000000     -2.585300000000000
H       9.170400000000001     -0.149300000000000     -2.496400000000000
H       6.807100000000000     -2.354400000000000     -0.567900000000000
H       7.802200000000000     -2.521900000000000      0.898500000000000
H       8.289700000000000     -3.253500000000000     -0.611600000000000
H      -5.732400000000000     -0.776700000000000      0.866300000000000
H      -5.697600000000000      0.963300000000000      0.755600000000000
H       5.699900000000000     -0.761200000000000     -0.822500000000000
H       5.673300000000000      0.976000000000000     -0.725200000000000
H      -4.336500000000000      0.830900000000000     -1.324200000000000
H      -4.395200000000000     -0.932700000000000     -1.258600000000000
H       4.319700000000000      0.876400000000000      1.352100000000000
H       4.381700000000000     -0.888300000000000      1.321200000000000
H      -3.203900000000000      0.865000000000000      0.919000000000000
H      -3.235200000000000     -0.899400000000000      0.954700000000000
H       3.181200000000000      0.862900000000000     -0.890300000000000
H       3.219900000000000     -0.901800000000000     -0.893300000000000
H      -1.838900000000000      0.790200000000000     -1.188700000000000
H      -1.849500000000000     -0.973700000000000     -1.126200000000000
H       1.816400000000000      0.820800000000000      1.218700000000000
H       1.834900000000000     -0.944000000000000      1.188600000000000
H      -0.691300000000000     -0.910500000000000      1.087300000000000
H      -0.702900000000000      0.854200000000000      1.053600000000000
H       0.679900000000000      0.838700000000000     -1.024200000000000
H       0.676700000000000     -0.926300000000000     -1.026000000000000
