92

N       2.080500000000000      3.636700000000000     -0.100200000000000
N      -4.363200000000000     -0.542700000000000     -0.589000000000000
C      -0.667600000000000      0.552600000000000      1.385700000000000
C       0.297100000000000      1.360600000000000      0.517800000000000
C      -2.024300000000000      0.449800000000000      0.689700000000000
C       1.640400000000000      1.531800000000000      1.217000000000000
C      -0.256800000000000      2.754000000000000      0.245500000000000
C      -1.891300000000000     -0.216200000000000     -0.686500000000000
C      -3.037800000000000     -0.282700000000000      1.559000000000000
C       2.661800000000000      2.353000000000000      0.386500000000000
C       0.685000000000000      3.627300000000000     -0.625100000000000
C      -3.101900000000000     -1.086900000000000     -1.142000000000000
C      -4.435900000000000     -0.365300000000000      0.886300000000000
C      -0.057100000000000     -0.828000000000000      1.692700000000000
C       3.247100000000000      1.455600000000000     -0.728400000000000
C       3.826700000000000      2.663600000000000      1.368100000000000
C       0.100800000000000      5.065300000000000     -0.537600000000000
C       0.563300000000000      3.186700000000000     -2.102300000000000
C      -3.095900000000000     -1.026400000000000     -2.694800000000000
C      -2.868200000000000     -2.571000000000000     -0.772500000000000
C      -5.165000000000000      0.979400000000000      1.139000000000000
C      -5.230700000000000     -1.472000000000000      1.619900000000000
C       0.256600000000000     -1.705000000000000      0.474200000000000
C       3.009700000000000      4.440000000000000     -0.904000000000000
C      -5.589400000000000     -1.056400000000000     -1.200100000000000
C       0.920500000000000     -3.035000000000000      0.838400000000000
C       1.229400000000000     -3.911700000000000     -0.380300000000000
C       2.103900000000000     -3.263400000000000     -1.459200000000000
C       3.460900000000000     -2.788600000000000     -0.933400000000000
C       4.342400000000000     -3.930100000000000     -0.417000000000000
C       5.727100000000000     -3.466800000000000      0.037800000000000
C       5.631900000000000     -2.508300000000000      1.214900000000000
H      -0.809800000000000      1.069400000000000      2.345200000000000
H       0.469000000000000      0.873300000000000     -0.442700000000000
H      -2.442600000000000      1.452600000000000      0.564500000000000
H       2.105600000000000      0.565200000000000      1.433400000000000
H       1.477400000000000      2.020900000000000      2.188300000000000
H      -0.441500000000000      3.257100000000000      1.205800000000000
H      -1.219200000000000      2.719200000000000     -0.272000000000000
H      -0.943800000000000     -0.582300000000000     -1.063600000000000
H      -1.953500000000000      0.673400000000000     -1.342500000000000
H      -3.118000000000000      0.219100000000000      2.532900000000000
H      -2.695400000000000     -1.295700000000000      1.784200000000000
H       0.846200000000000     -0.720700000000000      2.302700000000000
H      -0.723000000000000     -1.388300000000000      2.359200000000000
H       4.042000000000000      1.960000000000000     -1.287700000000000
H       3.698300000000000      0.552400000000000     -0.299600000000000
H       2.496600000000000      1.118100000000000     -1.443900000000000
H       4.709500000000000      3.065100000000000      0.860300000000000
H       3.518200000000000      3.383800000000000      2.135200000000000
H       4.155600000000000      1.755200000000000      1.887900000000000
H       0.245000000000000      5.492200000000000      0.462000000000000
H       0.550200000000000      5.747500000000000     -1.266400000000000
H      -0.977800000000000      5.064900000000000     -0.738800000000000
H       1.131600000000000      3.838900000000000     -2.773800000000000
H       0.896200000000000      2.162100000000000     -2.270800000000000
H      -0.480900000000000      3.234800000000000     -2.435700000000000
H      -3.790100000000000     -1.748400000000000     -3.139300000000000
H      -3.365000000000000     -0.027600000000000     -3.058400000000000
H      -2.101700000000000     -1.262000000000000     -3.094300000000000
H      -2.001800000000000     -2.978900000000000     -1.306000000000000
H      -2.722300000000000     -2.744900000000000      0.294100000000000
H      -3.718700000000000     -3.191100000000000     -1.078600000000000
H      -6.207300000000000      0.952900000000000      0.803200000000000
H      -5.184100000000000      1.223000000000000      2.207900000000000
H      -4.676600000000000      1.812100000000000      0.620700000000000
H      -5.196400000000000     -1.319700000000000      2.705500000000000
H      -6.289000000000000     -1.482700000000000      1.338100000000000
H      -4.819700000000000     -2.466200000000000      1.417000000000000
H      -0.651200000000000     -2.044400000000000      0.012800000000000
H       0.898900000000000     -1.175000000000000     -0.229500000000000
H       3.965100000000000      4.592700000000000     -0.394900000000000
H       3.218200000000000      3.991600000000000     -1.880100000000000
H       2.633700000000000      5.452400000000000     -1.074200000000000
H      -5.718800000000000     -2.131500000000000     -1.042300000000000
H      -6.478700000000000     -0.551200000000000     -0.809100000000000
H      -5.618200000000000     -0.859700000000000     -2.276000000000000
H       0.260700000000000     -3.596500000000000      1.511900000000000
H       1.840300000000000     -2.845700000000000      1.403800000000000
H       0.280600000000000     -4.204200000000000     -0.848100000000000
H       1.687400000000000     -4.846400000000000     -0.037300000000000
H       1.576300000000000     -2.420300000000000     -1.918900000000000
H       2.264000000000000     -3.992200000000000     -2.263500000000000
H       3.985700000000000     -2.284200000000000     -1.754600000000000
H       3.308300000000000     -2.031400000000000     -0.159000000000000
H       3.853100000000000     -4.440400000000000      0.420000000000000
H       4.468800000000000     -4.675000000000000     -1.212100000000000
H       6.314200000000000     -4.343200000000000      0.335700000000000
H       6.259400000000000     -2.986000000000000     -0.790400000000000
H       5.031000000000000     -2.931400000000000      2.026100000000000
H       5.198200000000000     -1.547500000000000      0.923300000000000
H       6.633000000000000     -2.304700000000000      1.609300000000000
