92

N       4.142600000000000      0.011300000000000      0.194100000000000
N      -3.965800000000000     -0.408600000000000      0.149900000000000
C       4.580100000000000     -0.288700000000000      1.574500000000000
C       4.642900000000000     -1.029000000000000     -0.731300000000000
C       4.605900000000000      1.356200000000000     -0.211100000000000
C      -4.472100000000000     -1.474200000000000      1.034900000000000
C      -4.570500000000000     -0.484400000000000     -1.194300000000000
C      -4.181800000000000      0.924700000000000      0.744700000000000
C       3.743300000000000     -1.353600000000000      2.309400000000000
C       4.008500000000000     -1.021500000000000     -2.135100000000000
C       3.742600000000000      2.491400000000000      0.369600000000000
C      -3.502100000000000     -1.797300000000000      2.186800000000000
C      -3.994600000000000     -1.609100000000000     -2.074700000000000
C      -3.095100000000000      1.907100000000000      0.282900000000000
C       2.325200000000000     -0.901900000000000      2.688800000000000
C       2.485300000000000     -1.158000000000000     -2.103700000000000
C       2.315800000000000      2.492100000000000     -0.186600000000000
C      -2.144300000000000     -2.293600000000000      1.679900000000000
C      -2.468400000000000     -1.605400000000000     -2.227700000000000
C      -3.326300000000000      3.304000000000000      0.860300000000000
C       1.270300000000000     -1.054600000000000      1.592100000000000
C       1.885700000000000     -1.222900000000000     -3.510000000000000
C       1.424100000000000      3.499400000000000      0.539800000000000
C      -1.178500000000000     -2.610500000000000      2.823000000000000
C      -1.925500000000000     -0.397800000000000     -2.995900000000000
C      -2.382200000000000      4.380600000000000      0.309700000000000
C      -0.945200000000000      4.321300000000000      0.839300000000000
C      -0.004000000000000      3.468500000000000     -0.013700000000000
C       0.366500000000000     -1.434700000000000     -3.500500000000000
C       0.889400000000000     -2.497900000000000      1.250000000000000
C      -0.402300000000000     -0.258500000000000     -2.891600000000000
C       0.130600000000000     -3.254600000000000      2.346600000000000
H       5.633300000000000     -0.601500000000000      1.572800000000000
H       4.550200000000000      0.612600000000000      2.197500000000000
H       5.733400000000000     -0.952400000000000     -0.834400000000000
H       4.443600000000000     -2.021800000000000     -0.310700000000000
H       4.575900000000000      1.471200000000000     -1.299600000000000
H       5.654200000000000      1.503100000000000      0.080400000000000
H      -5.457000000000000     -1.207000000000000      1.439400000000000
H      -4.617300000000000     -2.406700000000000      0.477800000000000
H      -5.658900000000000     -0.608000000000000     -1.115600000000000
H      -4.422200000000000      0.457400000000000     -1.734500000000000
H      -5.184500000000000      1.302900000000000      0.506400000000000
H      -4.127400000000000      0.880500000000000      1.838800000000000
H       4.272300000000000     -1.569000000000000      3.247700000000000
H       3.727500000000000     -2.299000000000000      1.760400000000000
H       4.430800000000000     -1.862400000000000     -2.700100000000000
H       4.288900000000000     -0.117300000000000     -2.685800000000000
H       3.717000000000000      2.440100000000000      1.463300000000000
H       4.217100000000000      3.449000000000000      0.120900000000000
H      -3.359400000000000     -0.923900000000000      2.832700000000000
H      -3.957800000000000     -2.574600000000000      2.812800000000000
H      -4.297200000000000     -2.583100000000000     -1.673400000000000
H      -4.453100000000000     -1.539800000000000     -3.069200000000000
H      -2.125900000000000      1.522800000000000      0.615600000000000
H      -3.068800000000000      1.973800000000000     -0.809400000000000
H       2.004000000000000     -1.466100000000000      3.572000000000000
H       2.356100000000000      0.149200000000000      3.002000000000000
H       2.210000000000000     -2.061000000000000     -1.546900000000000
H       2.063000000000000     -0.300900000000000     -1.574700000000000
H       2.340600000000000      2.719600000000000     -1.259100000000000
H       1.870800000000000      1.499900000000000     -0.081100000000000
H      -2.290700000000000     -3.187700000000000      1.062000000000000
H      -1.699200000000000     -1.523000000000000      1.043300000000000
H      -1.994800000000000     -1.665700000000000     -1.243600000000000
H      -2.184600000000000     -2.520600000000000     -2.761500000000000
H      -4.352900000000000      3.611700000000000      0.622800000000000
H      -3.257300000000000      3.272200000000000      1.954400000000000
H       0.375100000000000     -0.497200000000000      1.889500000000000
H       1.621000000000000     -0.572600000000000      0.679700000000000
H       2.126500000000000     -0.305000000000000     -4.059700000000000
H       2.346400000000000     -2.052700000000000     -4.059900000000000
H       1.407800000000000      3.259300000000000      1.610100000000000
H       1.839000000000000      4.509300000000000      0.439200000000000
H      -1.660900000000000     -3.298100000000000      3.528700000000000
H      -0.959600000000000     -1.695100000000000      3.385100000000000
H      -2.222200000000000     -0.469000000000000     -4.049100000000000
H      -2.364100000000000      0.526600000000000     -2.608300000000000
H      -2.799300000000000      5.349000000000000      0.616700000000000
H      -2.394300000000000      4.377300000000000     -0.786500000000000
H      -0.549100000000000      5.345100000000000      0.853200000000000
H      -0.939300000000000      3.971900000000000      1.878500000000000
H      -0.001200000000000      3.837100000000000     -1.046700000000000
H      -0.351300000000000      2.433300000000000     -0.047100000000000
H       0.279200000000000     -2.486200000000000      0.338400000000000
H       1.786700000000000     -3.069400000000000      0.988300000000000
H       0.032100000000000     -1.584300000000000     -4.534300000000000
H       0.140400000000000     -2.358100000000000     -2.955400000000000
H      -0.105100000000000      0.667000000000000     -3.399900000000000
H      -0.137000000000000     -0.137800000000000     -1.835100000000000
H       0.785100000000000     -3.403100000000000      3.213300000000000
H      -0.096800000000000     -4.258800000000000      1.966300000000000
