92

N      -1.776900000000000     -0.561500000000000      0.220600000000000
N       1.777000000000000      0.553600000000000      0.240200000000000
C      -3.057400000000000      0.157900000000000      0.223000000000000
C       3.060400000000000     -0.160700000000000      0.227500000000000
C      -4.266500000000000     -0.800700000000000      0.318000000000000
C      -3.153500000000000      1.048300000000000     -1.047300000000000
C       4.266500000000000      0.802400000000000      0.312800000000000
C       3.147000000000000     -1.047400000000000     -1.045900000000000
C      -4.292000000000000     -1.613300000000000      1.615100000000000
C      -3.667300000000000      2.448700000000000     -0.692800000000000
C       4.302000000000000      1.611800000000000      1.611700000000000
C       3.670100000000000     -2.446700000000000     -0.700300000000000
C      -4.374100000000000     -1.731300000000000     -0.904700000000000
C      -4.039400000000000      0.445200000000000     -2.156300000000000
C       4.358000000000000      1.736700000000000     -0.908300000000000
C       4.019300000000000     -0.438100000000000     -2.162200000000000
C      -3.945600000000000     -1.071900000000000     -2.217400000000000
C       3.918800000000000      1.078900000000000     -2.218400000000000
C      -0.663900000000000      0.373400000000000      0.226500000000000
C       0.660000000000000     -0.384600000000000      0.252200000000000
C      -5.562000000000000     -2.475100000000000      1.653700000000000
C      -3.055100000000000     -2.521000000000000      1.674300000000000
C      -4.284600000000000     -0.658400000000000      2.817100000000000
C      -3.707900000000000      3.316400000000000     -1.959400000000000
C      -5.080700000000000      2.342400000000000     -0.101100000000000
C      -2.729400000000000      3.093800000000000      0.338100000000000
C       5.568900000000000      2.478500000000000      1.639700000000000
C       4.310500000000000      0.653800000000000      2.811200000000000
C       3.062200000000000      2.514300000000000      1.685900000000000
C       5.089000000000000     -2.336200000000000     -0.122600000000000
C       3.701300000000000     -3.311000000000000     -1.969500000000000
C       2.745300000000000     -3.098300000000000      0.338400000000000
H      -3.056400000000000      0.762600000000000      1.124100000000000
H       3.069200000000000     -0.767600000000000      1.127100000000000
H      -5.182500000000000     -0.199500000000000      0.309400000000000
H      -2.193200000000000      1.179700000000000     -1.547400000000000
H       5.184800000000000      0.204900000000000      0.293500000000000
H       2.182500000000000     -1.179700000000000     -1.537700000000000
H      -5.428900000000000     -2.016500000000000     -1.020000000000000
H      -3.833000000000000     -2.675000000000000     -0.825400000000000
H      -3.719000000000000      0.838800000000000     -3.129900000000000
H      -5.098800000000000      0.691800000000000     -2.075900000000000
H       5.410500000000000      2.026400000000000     -1.033700000000000
H       3.814000000000000      2.678000000000000     -0.821100000000000
H       3.690600000000000     -0.830400000000000     -3.133700000000000
H       5.080400000000000     -0.680600000000000     -2.093300000000000
H      -2.913100000000000     -1.358200000000000     -2.452200000000000
H      -4.559700000000000     -1.455700000000000     -3.040700000000000
H       4.523100000000000      1.467300000000000     -3.046800000000000
H       2.883000000000000      1.361800000000000     -2.442100000000000
H      -1.711900000000000     -1.166600000000000     -0.596000000000000
H       1.703600000000000      1.159900000000000     -0.574900000000000
H      -0.717000000000000      1.006300000000000      1.121500000000000
H      -0.611800000000000      1.030300000000000     -0.642000000000000
H       0.624500000000000     -1.071900000000000     -0.592800000000000
H       0.700800000000000     -0.987900000000000      1.168000000000000
H      -6.461400000000000     -1.869600000000000      1.494700000000000
H      -5.670700000000000     -2.965400000000000      2.628600000000000
H      -5.549900000000000     -3.274500000000000      0.905600000000000
H      -3.233000000000000     -3.308300000000000      2.420800000000000
H      -2.795000000000000     -3.056100000000000      0.761400000000000
H      -2.166000000000000     -2.008000000000000      2.054200000000000
H      -3.324900000000000     -0.153200000000000      2.963200000000000
H      -4.475100000000000     -1.211400000000000      3.745200000000000
H      -5.067700000000000      0.102700000000000      2.730700000000000
H      -2.736900000000000      3.328300000000000     -2.467400000000000
H      -3.955300000000000      4.355300000000000     -1.709900000000000
H      -4.465800000000000      2.984500000000000     -2.676300000000000
H      -5.456500000000000      3.355500000000000      0.099100000000000
H      -5.832300000000000      1.888200000000000     -0.747600000000000
H      -5.096800000000000      1.844900000000000      0.872200000000000
H      -2.792500000000000      2.673200000000000      1.344200000000000
H      -2.983900000000000      4.154900000000000      0.458800000000000
H      -1.686400000000000      3.065600000000000      0.007000000000000
H       6.469000000000000      1.877000000000000      1.469800000000000
H       5.685700000000000      2.966700000000000      2.614700000000000
H       5.546000000000000      3.279800000000000      0.893800000000000
H       5.095900000000000     -0.103900000000000      2.714900000000000
H       3.354400000000000      0.144400000000000      2.965500000000000
H       4.508100000000000      1.205200000000000      3.738800000000000
H       3.244400000000000      3.300400000000000      2.432800000000000
H       2.790700000000000      3.050700000000000      0.777100000000000
H       2.179000000000000      1.996800000000000      2.073300000000000
H       5.471000000000000     -3.348400000000000      0.071000000000000
H       5.832200000000000     -1.877300000000000     -0.775400000000000
H       5.112800000000000     -1.841200000000000      0.851800000000000
H       4.450600000000000     -2.974300000000000     -2.693200000000000
H       2.725300000000000     -3.325300000000000     -2.467800000000000
H       3.955000000000000     -4.349600000000000     -1.725200000000000
H       3.006900000000000     -4.158100000000000      0.455400000000000
H       1.699000000000000     -3.075800000000000      0.017400000000000
H       2.815100000000000     -2.678700000000000      1.344500000000000
