93

O       3.768200000000000     -1.856300000000000      1.107700000000000
O       4.372100000000000     -2.926400000000000     -0.846300000000000
C      -0.172300000000000      3.235500000000000     -2.143900000000000
C      -0.770700000000000      1.833400000000000     -1.987800000000000
C       1.162100000000000      3.471300000000000     -1.430700000000000
C      -0.919600000000000      1.331000000000000     -0.549300000000000
C      -1.869800000000000      2.177900000000000      0.298200000000000
C       2.267900000000000      2.509800000000000     -1.869800000000000
C      -2.013300000000000      1.596400000000000      1.707900000000000
C       3.571700000000000      2.790400000000000     -1.119500000000000
C      -2.949500000000000      2.404900000000000      2.613800000000000
C      -4.377200000000000      2.593300000000000      2.091300000000000
C       4.648200000000000      1.768200000000000     -1.488100000000000
C      -5.127600000000000      1.276700000000000      1.876100000000000
C      -6.484000000000000      1.521300000000000      1.212300000000000
C       5.977500000000000      1.991300000000000     -0.761100000000000
C      -7.319200000000000      0.251300000000000      1.028300000000000
C       5.915500000000000      1.940700000000000      0.769800000000000
C      -6.654900000000000     -0.888800000000000      0.247500000000000
C       5.269500000000000      0.685200000000000      1.369600000000000
C      -6.114100000000000     -0.468700000000000     -1.121600000000000
C      -5.736600000000000     -1.651600000000000     -2.019000000000000
C       5.914600000000000     -0.656100000000000      0.963700000000000
C      -4.749300000000000     -2.660900000000000     -1.426400000000000
C      -3.388600000000000     -2.062100000000000     -1.060500000000000
C      -2.424800000000000     -3.158900000000000     -0.598100000000000
C      -1.053400000000000     -2.597800000000000     -0.214500000000000
C       5.133000000000000     -1.834900000000000      1.569600000000000
C      -0.100700000000000     -3.722100000000000      0.196900000000000
C       7.380200000000000     -0.741700000000000      1.393200000000000
C       1.266800000000000     -3.228400000000000      0.674800000000000
C       2.049400000000000     -2.465500000000000     -0.392300000000000
C       3.528800000000000     -2.458700000000000     -0.091700000000000
H      -0.042400000000000      3.436100000000000     -3.214900000000000
H      -0.894300000000000      3.978600000000000     -1.784700000000000
H      -0.156100000000000      1.115300000000000     -2.544000000000000
H      -1.754600000000000      1.821500000000000     -2.473700000000000
H       1.482200000000000      4.501300000000000     -1.632600000000000
H       1.019000000000000      3.403400000000000     -0.346000000000000
H       0.060500000000000      1.264800000000000     -0.064100000000000
H      -1.309700000000000      0.308500000000000     -0.593000000000000
H       1.966300000000000      1.474500000000000     -1.676800000000000
H       2.433100000000000      2.604100000000000     -2.949700000000000
H      -2.844400000000000      2.211400000000000     -0.200500000000000
H      -1.502100000000000      3.207100000000000      0.371500000000000
H      -1.024400000000000      1.564100000000000      2.182800000000000
H      -2.354300000000000      0.556500000000000      1.649900000000000
H       3.925100000000000      3.801600000000000     -1.353600000000000
H       3.373400000000000      2.756700000000000     -0.042700000000000
H      -2.509600000000000      3.396300000000000      2.779400000000000
H      -2.990100000000000      1.917300000000000      3.595700000000000
H      -4.357500000000000      3.172400000000000      1.161100000000000
H      -4.932200000000000      3.203100000000000      2.815400000000000
H       4.835000000000000      1.820400000000000     -2.568100000000000
H       4.280700000000000      0.754700000000000     -1.290600000000000
H      -5.267300000000000      0.771800000000000      2.839200000000000
H      -4.534300000000000      0.611000000000000      1.244200000000000
H      -6.335000000000000      2.005700000000000      0.239700000000000
H      -7.062900000000000      2.227000000000000      1.821300000000000
H       6.697900000000000      1.245800000000000     -1.118200000000000
H       6.383900000000000      2.966900000000000     -1.056500000000000
H      -8.252599999999999      0.527000000000000      0.521500000000000
H      -7.608600000000000     -0.130400000000000      2.015400000000000
H       6.932600000000000      2.053700000000000      1.163400000000000
H       5.366300000000000      2.816900000000000      1.135600000000000
H      -7.398400000000000     -1.685000000000000      0.116300000000000
H      -5.847700000000000     -1.317300000000000      0.852200000000000
H       5.299900000000000      0.779600000000000      2.463200000000000
H       4.206200000000000      0.676700000000000      1.102700000000000
H      -5.242900000000000      0.184200000000000     -1.000200000000000
H      -6.874700000000000      0.123500000000000     -1.645500000000000
H      -5.325900000000000     -1.258400000000000     -2.957300000000000
H      -6.653500000000000     -2.190700000000000     -2.289200000000000
H       5.869600000000000     -0.746400000000000     -0.127400000000000
H      -4.600300000000000     -3.457000000000000     -2.167200000000000
H      -5.190400000000000     -3.143200000000000     -0.546300000000000
H      -3.504300000000000     -1.320600000000000     -0.262500000000000
H      -2.966900000000000     -1.543800000000000     -1.929900000000000
H      -2.303900000000000     -3.898000000000000     -1.399800000000000
H      -2.856500000000000     -3.685500000000000      0.262000000000000
H      -1.164800000000000     -1.887900000000000      0.613600000000000
H      -0.636200000000000     -2.048700000000000     -1.066100000000000
H       5.615000000000000     -2.793700000000000      1.342000000000000
H       5.097500000000000     -1.750100000000000      2.661700000000000
H       0.037100000000000     -4.412800000000000     -0.644200000000000
H      -0.557600000000000     -4.302900000000000      1.007800000000000
H       7.802400000000000     -1.720000000000000      1.139000000000000
H       7.989300000000000      0.013400000000000      0.887500000000000
H       7.485900000000000     -0.598700000000000      2.473900000000000
H       1.846200000000000     -4.100500000000000      1.004200000000000
H       1.140000000000000     -2.593100000000000      1.560200000000000
H       1.703500000000000     -1.430400000000000     -0.486100000000000
H       1.919200000000000     -2.943200000000000     -1.370700000000000
