93

N       5.192000000000000     -2.582100000000000     -0.728300000000000
N      -4.961600000000000     -1.989500000000000     -0.373900000000000
C       2.980100000000000      1.077200000000000      0.003100000000000
C       3.669900000000000     -0.248000000000000     -0.358500000000000
C       1.465500000000000      0.880800000000000      0.027300000000000
C      -2.809200000000000      1.714400000000000      0.438600000000000
C      -1.294700000000000      1.912200000000000      0.415000000000000
C       3.280100000000000     -1.449500000000000      0.567100000000000
C       5.229900000000000     -0.103100000000000     -0.564700000000000
C      -3.122300000000000      0.258500000000000      0.093700000000000
C       0.904600000000000      1.164400000000000      1.426500000000000
C       0.787000000000000      1.770500000000000     -1.022000000000000
C      -0.616000000000000      1.022900000000000      1.464600000000000
C      -0.733600000000000      1.628700000000000     -0.984100000000000
C      -3.866600000000000     -0.423300000000000      1.246300000000000
C      -3.982200000000000      0.174400000000000     -1.171500000000000
C       3.942600000000000     -2.751400000000000      0.016300000000000
C       5.965500000000000     -1.438700000000000     -0.279100000000000
C       3.349200000000000      2.141600000000000     -1.044000000000000
C       3.466200000000000      1.539300000000000      1.386900000000000
C      -3.433700000000000      2.690900000000000     -0.596200000000000
C      -4.269300000000000     -1.878100000000000      0.924700000000000
C      -4.386900000000000     -1.271500000000000     -1.528300000000000
C      -3.313200000000000      2.027000000000000      1.860600000000000
C       3.672700000000000     -1.222500000000000      2.043400000000000
C       1.748100000000000     -1.675200000000000      0.555200000000000
C       5.482500000000000      0.298300000000000     -2.040400000000000
C       5.875900000000000      0.986300000000000      0.317500000000000
C      -3.168100000000000      4.171300000000000     -0.350500000000000
C      -3.061500000000000     -2.827700000000000      1.014100000000000
C      -5.279100000000000     -2.346300000000000      1.999000000000000
C      -3.213900000000000     -2.043600000000000     -2.157700000000000
C      -5.500000000000000     -1.208300000000000     -2.600800000000000
H       3.260400000000000     -0.534600000000000     -1.341900000000000
H       1.109400000000000     -0.027500000000000     -0.410900000000000
H      -1.042400000000000      2.947000000000000      0.680400000000000
H      -2.228000000000000     -0.333500000000000     -0.096000000000000
H       1.071300000000000      2.210900000000000      1.709200000000000
H       1.290900000000000      0.544800000000000      2.234800000000000
H       1.100500000000000      1.522900000000000     -2.042700000000000
H       0.961600000000000      2.835300000000000     -0.836700000000000
H      -0.860100000000000     -0.036500000000000      1.354800000000000
H      -0.922200000000000      1.309000000000000      2.476100000000000
H      -1.121100000000000      2.338600000000000     -1.720900000000000
H      -0.981500000000000      0.630300000000000     -1.355500000000000
H      -3.249500000000000     -0.476000000000000      2.149500000000000
H      -4.795900000000000      0.113400000000000      1.473900000000000
H      -4.919900000000000      0.725300000000000     -1.033400000000000
H      -3.456100000000000      0.578400000000000     -2.043100000000000
H       3.255100000000000     -3.250800000000000     -0.678000000000000
H       4.108400000000000     -3.470500000000000      0.827700000000000
H       6.194300000000000     -1.553400000000000      0.787400000000000
H       6.938700000000000     -1.451300000000000     -0.784900000000000
H       4.372400000000000      2.493500000000000     -1.034800000000000
H       2.846700000000000      3.095200000000000     -0.849100000000000
H       3.135800000000000      1.829100000000000     -2.071300000000000
H       4.452200000000000      1.944500000000000      1.541900000000000
H       2.966100000000000      2.506500000000000      1.563300000000000
H       3.227200000000000      0.983900000000000      2.279300000000000
H      -3.149400000000000      2.498600000000000     -1.632700000000000
H      -4.527100000000000      2.612000000000000     -0.547400000000000
H      -4.406200000000000      2.106200000000000      1.896700000000000
H      -2.953600000000000      3.017300000000000      2.170800000000000
H      -2.980300000000000      1.373600000000000      2.668300000000000
H       3.860400000000000     -2.196000000000000      2.518200000000000
H       4.600500000000000     -0.675100000000000      2.192700000000000
H       2.870400000000000     -0.822900000000000      2.665400000000000
H       1.606900000000000     -2.693600000000000      0.961800000000000
H       1.331900000000000     -1.811200000000000     -0.451100000000000
H       1.126800000000000     -1.147500000000000      1.262100000000000
H       4.923700000000000     -0.341000000000000     -2.733500000000000
H       5.287200000000000      1.333800000000000     -2.306400000000000
H       6.543000000000000      0.155200000000000     -2.287700000000000
H       5.881800000000000      0.737200000000000      1.381900000000000
H       6.956600000000000      0.941600000000000      0.094100000000000
H       5.693500000000000      2.036500000000000      0.113400000000000
H       5.745600000000000     -3.435300000000000     -0.664400000000000
H      -5.920300000000000     -1.661200000000000     -0.246800000000000
H      -3.722400000000000      4.767000000000000     -1.084900000000000
H      -3.503000000000000      4.496200000000000      0.637900000000000
H      -2.112600000000000      4.429400000000000     -0.469500000000000
H      -3.325700000000000     -3.837200000000000      0.677600000000000
H      -2.711800000000000     -2.915400000000000      2.050100000000000
H      -2.201600000000000     -2.494800000000000      0.432100000000000
H      -5.587800000000000     -3.385200000000000      1.831100000000000
H      -6.185000000000000     -1.728100000000000      2.002200000000000
H      -4.843000000000000     -2.288800000000000      3.003300000000000
H      -3.470300000000000     -3.098800000000000     -2.309400000000000
H      -2.298500000000000     -2.002900000000000     -1.566600000000000
H      -2.959700000000000     -1.629700000000000     -3.141200000000000
H      -5.815200000000000     -2.212600000000000     -2.908700000000000
H      -5.155000000000000     -0.680200000000000     -3.497600000000000
H      -6.388600000000000     -0.680300000000000     -2.234200000000000
