93

N      -1.302600000000000      0.903500000000000     -0.204800000000000
N       0.936100000000000      0.078600000000000     -0.486400000000000
C      -2.098400000000000     -0.331600000000000     -0.234400000000000
C       2.087400000000000     -0.528000000000000      0.196600000000000
C      -2.844100000000000     -0.514300000000000      1.111800000000000
C      -3.078700000000000     -0.338000000000000     -1.434900000000000
C       3.320500000000000     -0.599400000000000     -0.739800000000000
C       1.703700000000000     -1.927000000000000      0.741800000000000
C      -0.003000000000000      0.725400000000000      0.442000000000000
C       0.614100000000000      2.063600000000000      0.844400000000000
C      -4.008500000000000      0.481100000000000      1.262700000000000
C      -4.219000000000000      0.677100000000000     -1.257400000000000
C       3.136600000000000     -1.632800000000000     -1.862500000000000
C       1.560100000000000     -2.963500000000000     -0.387000000000000
C      -4.956100000000000      0.480300000000000      0.064900000000000
C       2.772400000000000     -3.010400000000000     -1.314800000000000
C      -3.330200000000000     -1.958800000000000      1.290600000000000
C      -2.367700000000000     -0.116800000000000     -2.774200000000000
C       3.693100000000000      0.767100000000000     -1.324500000000000
C       2.702200000000000     -2.406800000000000      1.803700000000000
C      -0.226900000000000      2.742400000000000      1.933800000000000
C       0.767000000000000      2.979200000000000     -0.377800000000000
C       0.340700000000000      4.107700000000000      2.315400000000000
C       1.333100000000000      4.344000000000000      0.007700000000000
C       0.499500000000000      5.011800000000000      1.096900000000000
C      -3.973200000000000     -2.135800000000000      2.661600000000000
C      -2.173500000000000     -2.934500000000000      1.103700000000000
C      -3.379300000000000      0.241200000000000     -3.856200000000000
C      -1.573000000000000     -1.358200000000000     -3.161600000000000
C       4.313000000000000      1.650700000000000     -0.248800000000000
C       4.644400000000000      0.595600000000000     -2.502700000000000
C       2.860200000000000     -1.355200000000000      2.896500000000000
C       2.250100000000000     -3.738100000000000      2.393400000000000
H      -1.405900000000000     -1.155700000000000     -0.390000000000000
H       2.366500000000000      0.116800000000000      1.023300000000000
H      -2.150400000000000     -0.311200000000000      1.938900000000000
H      -3.551800000000000     -1.329400000000000     -1.474000000000000
H       4.175300000000000     -0.944300000000000     -0.140900000000000
H       0.729500000000000     -1.859300000000000      1.238200000000000
H      -0.124800000000000      0.127800000000000      1.351300000000000
H       1.601600000000000      1.926300000000000      1.292300000000000
H      -1.841000000000000      1.657000000000000      0.208800000000000
H       0.459800000000000     -0.612600000000000     -1.054800000000000
H      -3.596300000000000      1.493200000000000      1.365500000000000
H      -4.576100000000000      0.329100000000000      2.184600000000000
H      -4.981800000000000      0.577500000000000     -2.036200000000000
H      -3.831600000000000      1.702500000000000     -1.306000000000000
H       2.357500000000000     -1.305000000000000     -2.562200000000000
H       4.055200000000000     -1.779700000000000     -2.439500000000000
H       0.682000000000000     -2.708900000000000     -0.991600000000000
H       1.341700000000000     -3.966800000000000     -0.011700000000000
H      -5.696400000000000      1.279500000000000      0.188900000000000
H      -5.518600000000000     -0.460200000000000      0.036300000000000
H       2.561900000000000     -3.688000000000000     -2.150700000000000
H       3.632000000000000     -3.434000000000000     -0.782600000000000
H      -4.090500000000000     -2.213200000000000      0.543400000000000
H      -1.667300000000000      0.724400000000000     -2.711800000000000
H       2.814800000000000      1.263600000000000     -1.736400000000000
H       3.694000000000000     -2.570100000000000      1.366800000000000
H      -0.263400000000000      2.106700000000000      2.826900000000000
H      -1.263000000000000      2.896800000000000      1.615700000000000
H      -0.206700000000000      3.150800000000000     -0.854400000000000
H       1.406200000000000      2.550800000000000     -1.146500000000000
H       1.315600000000000      3.974700000000000      2.800700000000000
H      -0.316500000000000      4.588900000000000      3.048600000000000
H       1.368200000000000      4.991400000000000     -0.875900000000000
H       2.365700000000000      4.226100000000000      0.357800000000000
H       0.970800000000000      5.954700000000000      1.396100000000000
H      -0.490800000000000      5.262000000000000      0.696900000000000
H      -3.335300000000000     -1.748100000000000      3.463000000000000
H      -4.151700000000000     -3.197100000000000      2.869800000000000
H      -4.951000000000000     -1.650000000000000      2.725200000000000
H      -2.467100000000000     -3.938700000000000      1.432500000000000
H      -1.303900000000000     -2.646600000000000      1.700400000000000
H      -1.879500000000000     -3.048900000000000      0.056900000000000
H      -3.788700000000000      1.248700000000000     -3.730500000000000
H      -4.198900000000000     -0.483900000000000     -3.908900000000000
H      -2.892800000000000      0.241400000000000     -4.839200000000000
H      -2.224400000000000     -2.233700000000000     -3.259600000000000
H      -0.793500000000000     -1.600200000000000     -2.439700000000000
H      -1.076600000000000     -1.209000000000000     -4.127000000000000
H       5.236900000000000      1.209600000000000      0.141800000000000
H       3.647200000000000      1.826500000000000      0.595700000000000
H       4.569000000000000      2.632300000000000     -0.663100000000000
H       5.032100000000000      1.572500000000000     -2.816500000000000
H       4.149300000000000      0.178400000000000     -3.385500000000000
H       5.512200000000000     -0.021100000000000     -2.243800000000000
H       3.499200000000000     -0.524600000000000      2.581500000000000
H       3.352200000000000     -1.784400000000000      3.777100000000000
H       1.893800000000000     -0.958100000000000      3.225800000000000
H       1.201800000000000     -3.707400000000000      2.709500000000000
H       2.850500000000000     -3.994500000000000      3.273900000000000
H       2.380500000000000     -4.566600000000000      1.691400000000000
