93

N      -0.957200000000000      1.483200000000000      0.633300000000000
N      -3.481100000000000      0.078300000000000      0.512200000000000
C       2.349400000000000      1.132900000000000      0.298500000000000
C       3.337400000000000      0.367800000000000     -0.664500000000000
C       3.098100000000000     -1.116800000000000     -1.160800000000000
C      -0.034800000000000      2.540200000000000      0.222900000000000
C       1.246200000000000      1.965900000000000     -0.459400000000000
C       4.465300000000000      1.011900000000000     -1.044600000000000
C       5.216200000000000      2.201700000000000     -0.972000000000000
C       5.667600000000000      0.937800000000000     -1.775300000000000
C       3.072300000000000     -2.221200000000000     -0.037600000000000
C       3.073100000000000      2.138800000000000      1.239300000000000
C       1.666800000000000      0.179700000000000      1.331300000000000
C      -1.292300000000000      0.614300000000000     -0.501400000000000
C      -2.176100000000000      2.053800000000000      1.219500000000000
C      -4.404000000000000     -0.978300000000000      0.922100000000000
C       4.207000000000000     -2.415900000000000      1.021700000000000
C      -2.262100000000000     -0.492500000000000     -0.073600000000000
C      -3.145900000000000      0.946800000000000      1.647200000000000
C       1.796300000000000     -1.267400000000000     -2.003200000000000
C       4.212700000000000     -1.532800000000000     -2.162900000000000
C       0.250100000000000      3.428100000000000      1.439400000000000
C      -0.772100000000000      3.405300000000000     -0.826000000000000
C      -5.039100000000000     -1.667000000000000     -0.320600000000000
C      -6.007500000000000     -0.916100000000000     -1.289100000000000
C      -5.428000000000000     -0.377000000000000      1.888100000000000
C      -3.579600000000000     -2.036700000000000      1.685800000000000
C       5.127200000000000     -3.548800000000000      0.500400000000000
C       5.082300000000000     -1.181700000000000      1.255500000000000
C       3.643000000000000     -2.895400000000000      2.374900000000000
C      -5.979300000000000     -1.516300000000000     -2.707000000000000
C      -5.495600000000000      0.540600000000000     -1.406900000000000
C      -7.456500000000000     -0.863300000000000     -0.787100000000000
H       1.777400000000000      2.833300000000000     -0.885300000000000
H       0.974700000000000      1.419600000000000     -1.369500000000000
H       4.849200000000000      3.051200000000000     -1.530000000000000
H       5.741600000000000      2.415300000000000     -0.052100000000000
H       6.497300000000000      0.377900000000000     -1.367800000000000
H       5.615500000000000      1.002700000000000     -2.853400000000000
H       2.929200000000000     -3.187600000000000     -0.547400000000000
H       2.130300000000000     -2.135700000000000      0.509000000000000
H       4.014400000000000      1.731300000000000      1.621800000000000
H       3.314200000000000      3.078800000000000      0.730900000000000
H       2.504400000000000      2.396500000000000      2.135200000000000
H       2.403000000000000     -0.368700000000000      1.911800000000000
H       0.981500000000000     -0.519000000000000      0.851100000000000
H       1.077500000000000      0.719300000000000      2.078800000000000
H      -0.424400000000000      0.107500000000000     -0.906200000000000
H      -1.780500000000000      1.141200000000000     -1.327100000000000
H      -2.741000000000000      2.695200000000000      0.536700000000000
H      -1.968300000000000      2.626400000000000      2.128900000000000
H      -1.688400000000000     -1.119500000000000      0.618700000000000
H      -2.476500000000000     -1.085600000000000     -0.967800000000000
H      -4.015700000000000      1.495400000000000      2.024000000000000
H      -2.695700000000000      0.407700000000000      2.488700000000000
H       1.788200000000000     -2.202400000000000     -2.576300000000000
H       0.920000000000000     -1.304800000000000     -1.357300000000000
H       1.680400000000000     -0.441500000000000     -2.712700000000000
H       4.046700000000000     -2.558300000000000     -2.520300000000000
H       4.209700000000000     -0.904700000000000     -3.061500000000000
H       5.213200000000000     -1.540700000000000     -1.728700000000000
H      -0.569300000000000      4.123000000000000      1.661000000000000
H       1.115000000000000      4.073600000000000      1.248400000000000
H       0.443500000000000      2.858900000000000      2.353400000000000
H      -0.095200000000000      4.216200000000000     -1.134500000000000
H      -1.656900000000000      3.936600000000000     -0.467400000000000
H      -1.013900000000000      2.892800000000000     -1.760700000000000
H      -4.245500000000000     -2.117000000000000     -0.930500000000000
H      -5.593000000000000     -2.545600000000000      0.045200000000000
H      -5.906600000000000      0.537100000000000      1.526300000000000
H      -6.239100000000000     -1.099600000000000      2.048600000000000
H      -5.026000000000000     -0.188800000000000      2.891400000000000
H      -2.973900000000000     -2.677400000000000      1.033800000000000
H      -2.947000000000000     -1.642600000000000      2.486600000000000
H      -4.271000000000000     -2.731000000000000      2.184300000000000
H       4.572000000000000     -4.484000000000000      0.362800000000000
H       5.935900000000000     -3.755900000000000      1.211600000000000
H       5.596900000000000     -3.296100000000000     -0.453500000000000
H       5.650700000000000     -0.898900000000000      0.372200000000000
H       5.840500000000000     -1.405600000000000      2.018400000000000
H       4.525300000000000     -0.337700000000000      1.649600000000000
H       4.448200000000000     -3.144600000000000      3.075900000000000
H       3.029600000000000     -3.794500000000000      2.245400000000000
H       3.019400000000000     -2.138600000000000      2.856000000000000
H      -6.635700000000000     -0.966800000000000     -3.391100000000000
H      -6.312900000000000     -2.559700000000000     -2.689300000000000
H      -4.967800000000000     -1.496700000000000     -3.128100000000000
H      -5.592400000000000      1.123200000000000     -0.489800000000000
H      -4.467600000000000      0.585400000000000     -1.780700000000000
H      -6.099700000000000      1.081200000000000     -2.148500000000000
H      -8.105800000000000     -0.348100000000000     -1.504500000000000
H      -7.855500000000000     -1.874300000000000     -0.649500000000000
H      -7.550000000000000     -0.336300000000000      0.165300000000000
