93

O      -5.174100000000000     -0.104600000000000     -0.890800000000000
N       6.431300000000000     -6.007200000000000     -0.102500000000000
C       1.401700000000000      3.225200000000000     -0.469700000000000
C       0.378400000000000      3.306300000000000      0.709000000000000
C       2.570000000000000      2.245900000000000     -0.213200000000000
C       2.079500000000000      0.840800000000000      0.227800000000000
C       3.273400000000000     -0.159300000000000      0.472900000000000
C      -0.993300000000000      2.968600000000000      0.049400000000000
C       4.137700000000000     -0.194300000000000     -0.827600000000000
C       0.721800000000000      2.329800000000000      1.850800000000000
C       1.064200000000000      0.913300000000000      1.391600000000000
C       0.568300000000000      2.934900000000000     -1.731700000000000
C       3.515100000000000      2.170000000000000     -1.424200000000000
C      -0.827200000000000      3.430000000000000     -1.395400000000000
C       4.667200000000000      1.191800000000000     -1.211000000000000
C       2.733100000000000     -1.597800000000000      0.711800000000000
C       5.270600000000000     -1.229700000000000     -0.767500000000000
C       0.404000000000000      4.736400000000000      1.293900000000000
C      -2.234200000000000      3.558300000000000      0.707200000000000
C       4.108700000000000      0.275300000000000      1.706600000000000
C       4.721300000000000     -2.636600000000000     -0.493200000000000
C       3.831400000000000     -2.664900000000000      0.754200000000000
C      -3.529500000000000      3.161900000000000     -0.023000000000000
C       5.861700000000000     -3.645100000000000     -0.365600000000000
C      -2.303700000000000      3.108000000000000      2.167500000000000
C      -3.751800000000000      1.650600000000000     -0.094000000000000
C       5.326100000000000     -5.066600000000000     -0.241900000000000
C      -5.031600000000000      1.308600000000000     -0.845700000000000
C      -6.355000000000000     -0.488300000000000     -1.582500000000000
C      -6.446700000000000     -2.008500000000000     -1.594400000000000
C      -6.516000000000000     -2.576900000000000     -0.178000000000000
C      -6.576600000000000     -4.106400000000000     -0.137900000000000
C      -6.670800000000000     -4.674200000000000      1.278900000000000
C      -6.655100000000000     -6.195400000000000      1.268400000000000
H       1.850200000000000      4.218000000000000     -0.621700000000000
H       3.153200000000000      2.679600000000000      0.609900000000000
H       1.518300000000000      0.423500000000000     -0.621200000000000
H      -1.083600000000000      1.877300000000000      0.027800000000000
H       3.478900000000000     -0.513200000000000     -1.650700000000000
H      -0.039200000000000      2.266900000000000      2.625900000000000
H       1.606200000000000      2.714400000000000      2.380100000000000
H       1.410200000000000      0.359400000000000      2.269100000000000
H       0.146200000000000      0.396500000000000      1.085200000000000
H       0.530100000000000      1.864500000000000     -1.958800000000000
H       0.972900000000000      3.444600000000000     -2.612200000000000
H       3.923300000000000      3.164900000000000     -1.639200000000000
H       2.962000000000000      1.858700000000000     -2.318500000000000
H      -0.882400000000000      4.521100000000000     -1.481900000000000
H      -1.566000000000000      2.992700000000000     -2.073300000000000
H       5.246600000000000      1.125200000000000     -2.140000000000000
H       5.352500000000000      1.576400000000000     -0.447400000000000
H       2.027600000000000     -1.858700000000000     -0.088400000000000
H       2.167100000000000     -1.651300000000000      1.648800000000000
H       5.805100000000000     -1.237200000000000     -1.726400000000000
H       6.011500000000000     -0.950900000000000     -0.009300000000000
H       0.072100000000000      5.476800000000000      0.557600000000000
H       1.429100000000000      5.009700000000000      1.575000000000000
H      -0.195800000000000      4.866900000000000      2.194000000000000
H      -2.192700000000000      4.654300000000000      0.690300000000000
H       4.471900000000000      1.303000000000000      1.628300000000000
H       4.990200000000000     -0.354500000000000      1.855300000000000
H       3.526900000000000      0.210200000000000      2.631300000000000
H       4.102900000000000     -2.923100000000000     -1.355700000000000
H       4.437400000000000     -2.543000000000000      1.659600000000000
H       3.324500000000000     -3.631000000000000      0.847500000000000
H      -4.383800000000000      3.624700000000000      0.488500000000000
H      -3.530100000000000      3.582600000000000     -1.035500000000000
H       6.484500000000000     -3.400100000000000      0.504900000000000
H       6.510600000000000     -3.575300000000000     -1.248400000000000
H      -2.159900000000000      2.028300000000000      2.277800000000000
H      -3.298100000000000      3.330200000000000      2.575700000000000
H      -1.615500000000000      3.631300000000000      2.829000000000000
H      -2.926300000000000      1.145400000000000     -0.605500000000000
H      -3.806400000000000      1.210100000000000      0.907800000000000
H       4.729700000000000     -5.330900000000000     -1.121900000000000
H       4.696300000000000     -5.187300000000000      0.642400000000000
H      -4.985100000000000      1.704500000000000     -1.867000000000000
H      -5.896000000000000      1.748400000000000     -0.334400000000000
H       7.031000000000000     -5.957000000000000     -0.925100000000000
H       6.065000000000000     -6.957900000000000     -0.074300000000000
H      -6.314900000000000     -0.117400000000000     -2.613100000000000
H      -7.234000000000000     -0.059600000000000     -1.087200000000000
H      -7.329200000000000     -2.318000000000000     -2.165600000000000
H      -5.563200000000000     -2.420300000000000     -2.097200000000000
H      -5.642700000000000     -2.250300000000000      0.399500000000000
H      -7.399500000000000     -2.170700000000000      0.330200000000000
H      -7.440800000000000     -4.447800000000000     -0.721300000000000
H      -5.683200000000000     -4.509500000000000     -0.631200000000000
H      -5.830300000000000     -4.310800000000000      1.881100000000000
H      -7.591100000000000     -4.322500000000000      1.759100000000000
H      -7.499300000000000     -6.592300000000000      0.695600000000000
H      -5.729200000000000     -6.575500000000000      0.824900000000000
H      -6.725800000000000     -6.581800000000000      2.289900000000000
