93

O       0.607800000000000      0.898700000000000     -1.175400000000000
O      -2.359700000000000      3.134600000000000      1.580400000000000
C      -1.146400000000000      2.601600000000000     -1.092600000000000
C      -2.244000000000000      1.757000000000000     -0.407100000000000
C       0.410600000000000      2.181600000000000      0.898900000000000
C       0.264500000000000      2.176600000000000     -0.640600000000000
C      -0.703100000000000      1.339900000000000      1.581200000000000
C      -2.105400000000000      1.805300000000000      1.126500000000000
C      -1.295100000000000      2.538100000000000     -2.622600000000000
C      -3.639500000000000      2.220700000000000     -0.862700000000000
C      -2.685800000000000      2.980400000000000     -3.070700000000000
C       1.815800000000000      1.714000000000000      1.299400000000000
C      -3.779400000000000      2.171300000000000     -2.382000000000000
C      -0.591900000000000      1.372400000000000      3.111400000000000
C       2.893400000000000      2.584400000000000      0.648200000000000
C       4.344700000000000      2.246500000000000      1.047400000000000
C       4.848000000000000      0.882800000000000      0.531100000000000
C       4.538300000000000      2.325300000000000      2.565900000000000
C       4.658500000000000      0.626400000000000     -0.969100000000000
C       5.097500000000000     -0.757400000000000     -1.465100000000000
C       4.413100000000000     -1.961300000000000     -0.781800000000000
C       2.881800000000000     -1.918600000000000     -0.984100000000000
C       4.960600000000000     -3.286100000000000     -1.324300000000000
C       2.146100000000000     -3.014600000000000     -0.201400000000000
C       0.628000000000000     -2.893500000000000     -0.370900000000000
C      -0.202500000000000     -3.915500000000000      0.434200000000000
C      -1.692100000000000     -3.988600000000000      0.039500000000000
C      -2.510500000000000     -2.783700000000000      0.513600000000000
C       0.418500000000000     -5.314900000000000      0.360000000000000
C      -3.987200000000000     -2.853700000000000      0.103500000000000
C      -4.851800000000000     -1.639300000000000      0.492900000000000
C      -6.291200000000000     -1.857700000000000      0.017800000000000
C      -4.841800000000000     -1.372600000000000      1.998300000000000
H      -1.280100000000000      3.653600000000000     -0.805200000000000
H      -2.131500000000000      0.709400000000000     -0.718900000000000
H       0.309500000000000      3.221600000000000      1.237500000000000
H       0.952600000000000      2.899000000000000     -1.089500000000000
H      -0.588600000000000      0.290800000000000      1.277000000000000
H      -2.868500000000000      1.162000000000000      1.578800000000000
H      -1.115900000000000      1.517000000000000     -2.981400000000000
H      -0.542800000000000      3.179100000000000     -3.097300000000000
H      -3.829000000000000      3.247100000000000     -0.524700000000000
H      -4.412300000000000      1.592000000000000     -0.406600000000000
H      -2.775000000000000      2.870300000000000     -4.157300000000000
H      -2.821100000000000      4.045300000000000     -2.845300000000000
H       1.962200000000000      0.660800000000000      1.039000000000000
H       1.920300000000000      1.790200000000000      2.385100000000000
H      -4.762600000000000      2.556900000000000     -2.674200000000000
H      -3.731900000000000      1.128500000000000     -2.719200000000000
H      -0.527300000000000      2.398300000000000      3.488300000000000
H       0.286400000000000      0.820900000000000      3.460300000000000
H      -1.465400000000000      0.897300000000000      3.571500000000000
H       2.705700000000000      3.629800000000000      0.929900000000000
H       2.836100000000000      2.561900000000000     -0.441300000000000
H      -0.025800000000000      0.243400000000000     -0.842600000000000
H      -1.687000000000000      3.736500000000000      1.227400000000000
H       4.982200000000000      3.018700000000000      0.595300000000000
H       5.914100000000000      0.781500000000000      0.771900000000000
H       4.332300000000000      0.097500000000000      1.095200000000000
H       4.156700000000000      3.272400000000000      2.961400000000000
H       4.037500000000000      1.504400000000000      3.088800000000000
H       5.603600000000000      2.268400000000000      2.815600000000000
H       5.230700000000000      1.382600000000000     -1.521600000000000
H       3.615400000000000      0.776000000000000     -1.258700000000000
H       4.925100000000000     -0.808300000000000     -2.547900000000000
H       6.182500000000000     -0.843200000000000     -1.322600000000000
H       4.636000000000000     -1.932600000000000      0.291100000000000
H       2.640400000000000     -1.996900000000000     -2.051500000000000
H       2.493100000000000     -0.957100000000000     -0.640000000000000
H       2.470200000000000     -3.991100000000000     -0.570800000000000
H       2.405900000000000     -2.949400000000000      0.861600000000000
H       4.652800000000000     -3.451700000000000     -2.362200000000000
H       4.632000000000000     -4.139200000000000     -0.723800000000000
H       6.055900000000000     -3.286100000000000     -1.297100000000000
H       0.388100000000000     -2.999800000000000     -1.436700000000000
H       0.311700000000000     -1.885000000000000     -0.081000000000000
H      -0.152700000000000     -3.617000000000000      1.490500000000000
H      -1.778500000000000     -4.091200000000000     -1.049300000000000
H      -2.143900000000000     -4.889300000000000      0.474400000000000
H      -2.077400000000000     -1.862700000000000      0.106600000000000
H      -2.432700000000000     -2.719400000000000      1.604700000000000
H       0.526000000000000     -5.645800000000000     -0.678400000000000
H       1.399400000000000     -5.350700000000000      0.844100000000000
H      -0.207300000000000     -6.048000000000000      0.881400000000000
H      -4.425200000000000     -3.761600000000000      0.539000000000000
H      -4.037800000000000     -2.981300000000000     -0.985800000000000
H      -4.453200000000000     -0.754800000000000     -0.016500000000000
H      -6.743600000000000     -2.729200000000000      0.503300000000000
H      -6.911400000000000     -0.983700000000000      0.243300000000000
H      -6.323100000000000     -2.017300000000000     -1.065200000000000
H      -5.165700000000000     -2.254900000000000      2.560300000000000
H      -5.514200000000000     -0.545200000000000      2.249900000000000
H      -3.843000000000000     -1.093100000000000      2.346800000000000
