93

N      -4.766600000000000     -2.867700000000000     -0.279500000000000
N      -1.405900000000000      4.931000000000000     -0.266800000000000
C      -1.073400000000000     -1.003000000000000      1.045000000000000
C      -0.027400000000000     -0.200300000000000      0.328600000000000
C       0.363000000000000     -1.435100000000000      1.086900000000000
C      -2.080000000000000     -1.779700000000000      0.235200000000000
C       0.359800000000000      1.127300000000000      0.866500000000000
C       0.813100000000000     -2.629600000000000      0.329500000000000
C      -3.243100000000000     -0.880800000000000     -0.200200000000000
C      -2.639800000000000     -2.957300000000000      1.041100000000000
C      -0.642300000000000      2.200200000000000      0.524000000000000
C      -4.335200000000000     -1.642300000000000     -0.979600000000000
C      -3.723300000000000     -3.749000000000000      0.279900000000000
C      -0.535200000000000      3.379800000000000      1.497100000000000
C      -0.426300000000000      2.715200000000000     -0.903700000000000
C       2.311800000000000     -2.932600000000000      0.529500000000000
C      -1.496900000000000      4.535800000000000      1.152200000000000
C      -1.386600000000000      3.861400000000000     -1.283300000000000
C      -3.893400000000000     -1.932600000000000     -2.424800000000000
C      -5.582200000000000     -0.731700000000000     -1.073800000000000
C      -4.434800000000000     -4.682000000000000      1.288100000000000
C      -3.102300000000000     -4.657100000000000     -0.796100000000000
C       3.208100000000000     -1.762800000000000      0.115900000000000
C      -2.942200000000000      4.204300000000000      1.563700000000000
C      -1.075900000000000      5.774400000000000      1.977900000000000
C      -2.799500000000000      3.331900000000000     -1.585900000000000
C      -0.869100000000000      4.509800000000000     -2.589000000000000
C       4.688200000000000     -2.110000000000000      0.291300000000000
C       5.630900000000000     -0.966500000000000     -0.097600000000000
C       7.111500000000000     -1.341200000000000      0.006900000000000
C       8.052000000000000     -0.217500000000000     -0.439000000000000
C       9.529400000000001     -0.612300000000000     -0.407300000000000
C      10.413800000000000      0.520300000000000     -0.832400000000000
H      -1.496200000000000     -0.597600000000000      1.957900000000000
H       0.004100000000000     -0.234700000000000     -0.753600000000000
H       0.847200000000000     -1.344900000000000      2.052800000000000
H      -1.599600000000000     -2.163900000000000     -0.669800000000000
H       1.359300000000000      1.388200000000000      0.496900000000000
H       0.459100000000000      1.056600000000000      1.958100000000000
H       0.624000000000000     -2.525700000000000     -0.745700000000000
H       0.262000000000000     -3.513200000000000      0.666800000000000
H      -3.682900000000000     -0.416900000000000      0.694500000000000
H      -2.860000000000000     -0.050400000000000     -0.808000000000000
H      -1.833800000000000     -3.632400000000000      1.350700000000000
H      -3.065700000000000     -2.564900000000000      1.976200000000000
H      -1.650800000000000      1.780100000000000      0.605500000000000
H      -0.725800000000000      3.033300000000000      2.521500000000000
H       0.500400000000000      3.748900000000000      1.486000000000000
H       0.611200000000000      3.066500000000000     -0.998400000000000
H      -0.537000000000000      1.892800000000000     -1.621800000000000
H       2.493800000000000     -3.173600000000000      1.584200000000000
H       2.571000000000000     -3.824600000000000     -0.053500000000000
H      -5.410800000000000     -3.402600000000000     -0.861100000000000
H      -3.804700000000000     -1.000200000000000     -2.996200000000000
H      -2.920600000000000     -2.420800000000000     -2.490700000000000
H      -4.623400000000000     -2.561200000000000     -2.948000000000000
H      -5.983500000000000     -0.500900000000000     -0.079600000000000
H      -5.340700000000000      0.221100000000000     -1.559500000000000
H      -6.383500000000000     -1.206700000000000     -1.652600000000000
H      -3.721500000000000     -5.357800000000000      1.774100000000000
H      -4.934800000000000     -4.108500000000000      2.077900000000000
H      -5.195300000000000     -5.299700000000000      0.795300000000000
H      -2.420600000000000     -4.130900000000000     -1.465000000000000
H      -2.513900000000000     -5.458700000000000     -0.332600000000000
H      -3.873800000000000     -5.138400000000000     -1.408400000000000
H      -2.120500000000000      5.622700000000000     -0.490700000000000
H       2.981400000000000     -0.876500000000000      0.718900000000000
H       3.013500000000000     -1.501900000000000     -0.931200000000000
H      -3.290800000000000      3.243500000000000      1.183400000000000
H      -3.030300000000000      4.148900000000000      2.655700000000000
H      -3.642300000000000      4.976700000000000      1.224300000000000
H      -1.089100000000000      5.557300000000000      3.052400000000000
H      -0.060400000000000      6.098900000000000      1.720700000000000
H      -1.749100000000000      6.621900000000000      1.801500000000000
H      -2.796300000000000      2.718600000000000     -2.495500000000000
H      -3.201700000000000      2.696900000000000     -0.795800000000000
H      -3.507300000000000      4.152000000000000     -1.754200000000000
H       0.128400000000000      4.943900000000000     -2.450800000000000
H      -0.797300000000000      3.771600000000000     -3.396400000000000
H      -1.535000000000000      5.311700000000000     -2.930000000000000
H       4.924100000000000     -2.991300000000000     -0.318200000000000
H       4.876400000000000     -2.387800000000000      1.335800000000000
H       5.430200000000000     -0.098400000000000      0.542100000000000
H       5.411700000000000     -0.658600000000000     -1.127500000000000
H       7.343500000000000     -1.618400000000000      1.042500000000000
H       7.299900000000000     -2.229500000000000     -0.608800000000000
H       7.784900000000000      0.089500000000000     -1.458100000000000
H       7.893600000000000      0.655900000000000      0.205800000000000
H       9.802500000000000     -0.928500000000000      0.606200000000000
H       9.693700000000000     -1.472600000000000     -1.066500000000000
H      10.186299999999999      0.840200000000000     -1.854500000000000
H      10.296500000000000      1.385700000000000     -0.172000000000000
H      11.465400000000001      0.217300000000000     -0.802900000000000
