93

O      -1.458100000000000      0.645100000000000     -2.854200000000000
N       0.788100000000000      0.381300000000000     -3.178500000000000
C      -0.023000000000000      0.735400000000000     -0.882700000000000
C      -1.328900000000000      0.961800000000000     -0.106100000000000
C       0.643500000000000     -0.549000000000000     -0.366900000000000
C       0.937200000000000      1.908700000000000     -0.656400000000000
C      -1.964700000000000      2.289800000000000     -0.601500000000000
C      -2.233200000000000     -0.279400000000000     -0.276000000000000
C       0.307200000000000     -0.698600000000000      1.142200000000000
C       0.184600000000000     -1.736600000000000     -1.242400000000000
C       1.159400000000000      2.111300000000000      0.858900000000000
C       2.228900000000000      1.719600000000000     -1.482600000000000
C      -0.321200000000000      0.585200000000000     -2.387100000000000
C      -3.164700000000000      2.804500000000000      0.205300000000000
C      -3.212600000000000     -0.484400000000000      0.889100000000000
C       1.060500000000000     -1.804400000000000      1.894200000000000
C       1.195900000000000     -2.891600000000000     -1.281600000000000
C       2.129100000000000      3.244300000000000      1.217700000000000
C       3.160500000000000      0.603800000000000     -0.992400000000000
C      -4.507100000000000      2.231700000000000     -0.267600000000000
C      -4.552300000000000     -1.082500000000000      0.440400000000000
C       0.367700000000000     -3.171400000000000      1.821000000000000
C       0.523100000000000     -4.266900000000000     -1.382500000000000
C       3.088400000000000      2.912700000000000      2.364800000000000
C       4.648600000000000      0.963400000000000     -1.037400000000000
C      -5.500300000000000      2.019300000000000      0.882800000000000
C      -5.749500000000000     -0.547300000000000      1.235800000000000
C       1.361900000000000     -4.339600000000000      1.780600000000000
C       1.268900000000000     -5.362500000000000     -0.610800000000000
C       4.035600000000000      1.719000000000000      2.176800000000000
C       5.114100000000000      2.163800000000000     -0.200600000000000
C      -6.365400000000000      0.764200000000000      0.711600000000000
C       0.903700000000000     -5.493800000000000      0.880400000000000
C       5.274200000000000      1.943000000000000      1.305600000000000
H      -1.200300000000000      1.110800000000000      0.965600000000000
H       1.687800000000000     -0.661000000000000     -0.411600000000000
H       0.531500000000000      2.838900000000000     -1.066700000000000
H      -2.256700000000000      2.287400000000000     -1.652400000000000
H      -1.249900000000000      3.107400000000000     -0.493900000000000
H      -1.854400000000000     -1.255000000000000     -0.408800000000000
H      -2.827500000000000     -0.126400000000000     -1.182200000000000
H      -0.719900000000000     -1.006800000000000      1.295000000000000
H       0.387000000000000      0.160100000000000      1.793800000000000
H      -0.117100000000000     -1.589100000000000     -2.276000000000000
H      -0.642700000000000     -2.256600000000000     -0.788300000000000
H       1.649100000000000      1.246500000000000      1.271000000000000
H       0.243000000000000      2.325300000000000      1.410900000000000
H       2.769500000000000      2.658600000000000     -1.337900000000000
H       2.169100000000000      1.809700000000000     -2.566200000000000
H      -3.218800000000000      3.896000000000000      0.095800000000000
H      -2.988100000000000      2.627600000000000      1.271800000000000
H      -3.370800000000000      0.443900000000000      1.435800000000000
H      -2.777200000000000     -1.161600000000000      1.634400000000000
H       1.123700000000000     -1.527500000000000      2.955400000000000
H       2.098500000000000     -1.839200000000000      1.546200000000000
H       1.873200000000000     -2.860600000000000     -0.429000000000000
H       1.850400000000000     -2.751500000000000     -2.152300000000000
H       1.523600000000000      4.105100000000000      1.534800000000000
H       2.690900000000000      3.626300000000000      0.369700000000000
H       3.082000000000000     -0.292100000000000     -1.616200000000000
H       3.029200000000000      0.360700000000000      0.054200000000000
H      -4.369100000000000      1.314500000000000     -0.837700000000000
H      -4.950800000000000      2.933100000000000     -0.986900000000000
H      -4.495600000000000     -2.169000000000000      0.586300000000000
H      -4.739100000000000     -0.936200000000000     -0.629000000000000
H      -0.332600000000000     -3.232600000000000      0.991100000000000
H      -0.264600000000000     -3.285600000000000      2.712000000000000
H       0.505900000000000     -4.545300000000000     -2.444400000000000
H      -0.524900000000000     -4.263400000000000     -1.063900000000000
H       2.480700000000000      2.717400000000000      3.258500000000000
H       3.681300000000000      3.806500000000000      2.595800000000000
H       4.909000000000000      1.167000000000000     -2.084700000000000
H       5.235000000000000      0.082000000000000     -0.747400000000000
H       0.674300000000000      0.349200000000000     -4.187000000000000
H       1.631100000000000     -0.066500000000000     -2.850000000000000
H      -6.162000000000000      2.894500000000000      0.915600000000000
H      -5.004000000000000      1.983700000000000      1.858700000000000
H      -5.489400000000000     -0.444400000000000      2.296200000000000
H      -6.539800000000000     -1.308000000000000      1.188500000000000
H       1.468600000000000     -4.720200000000000      2.804600000000000
H       2.364400000000000     -4.020900000000000      1.474700000000000
H       2.352800000000000     -5.240200000000000     -0.724100000000000
H       1.020200000000000     -6.322200000000000     -1.082500000000000
H       3.518900000000000      0.797500000000000      1.914900000000000
H       4.429800000000000      1.505400000000000      3.182000000000000
H       4.536900000000000      3.065300000000000     -0.402100000000000
H       6.120800000000000      2.408300000000000     -0.570300000000000
H      -7.291800000000000      0.926100000000000      1.278300000000000
H      -6.666600000000000      0.647100000000000     -0.336300000000000
H       1.392500000000000     -6.406700000000000      1.245300000000000
H      -0.174400000000000     -5.661300000000000      0.991500000000000
H       5.817500000000000      2.806900000000000      1.711400000000000
H       5.943100000000000      1.084100000000000      1.450700000000000
