93

N      -4.278700000000000      0.195300000000000      0.262000000000000
N       3.343900000000000     -0.239300000000000     -0.941200000000000
C      -5.349000000000000     -0.772900000000000      0.030900000000000
C      -4.768900000000000      1.555600000000000      0.044800000000000
C      -6.295900000000000     -0.800100000000000      1.235800000000000
C      -4.749700000000000     -2.158800000000000     -0.232500000000000
C      -3.597800000000000      2.519000000000000     -0.207400000000000
C      -5.766500000000000      1.590000000000000     -1.113000000000000
C      -3.740800000000000      0.053300000000000      1.610800000000000
C      -7.385800000000000     -1.856700000000000      1.063100000000000
C      -5.841300000000000     -3.214000000000000     -0.402800000000000
C      -4.011600000000000      3.802100000000000     -0.935400000000000
C      -6.375700000000000      2.984400000000000     -1.294100000000000
C       3.764200000000000     -1.553100000000000     -0.456500000000000
C      -6.793700000000000     -3.236300000000000      0.789300000000000
C      -5.491500000000000      4.115700000000000     -0.766200000000000
C      -2.341000000000000      0.662200000000000      1.686100000000000
C       2.664300000000000     -2.598300000000000     -0.703300000000000
C       5.078400000000000     -1.974400000000000     -1.114000000000000
C       4.510000000000000      0.604800000000000     -1.204300000000000
C       2.456600000000000      0.403600000000000      0.026800000000000
C       3.185500000000000     -4.039000000000000     -0.715100000000000
C       5.596300000000000     -3.299900000000000     -0.545600000000000
C      -1.339900000000000     -0.003400000000000      0.736400000000000
C       4.498200000000000     -4.188900000000000      0.041000000000000
C       1.031500000000000     -0.125400000000000     -0.126500000000000
C       0.080700000000000      0.551400000000000      0.864500000000000
C       5.348100000000000      0.795400000000000      0.071000000000000
C       4.051300000000000      1.955600000000000     -1.753200000000000
C       6.641800000000000      1.583400000000000     -0.171500000000000
C       7.475500000000000      1.682500000000000      1.108900000000000
C       8.767799999999999      2.482200000000000      0.930800000000000
C       9.633900000000001      2.524100000000000      2.180300000000000
H      -5.902600000000000     -0.642300000000000     -0.898400000000000
H      -5.312400000000000      1.909200000000000      0.933500000000000
H      -5.796300000000000     -1.059500000000000      2.175400000000000
H      -6.783100000000000      0.170200000000000      1.384900000000000
H      -4.130600000000000     -2.134300000000000     -1.138600000000000
H      -4.092800000000000     -2.489600000000000      0.579200000000000
H      -3.243600000000000      2.902700000000000      0.748500000000000
H      -2.767500000000000      2.060800000000000     -0.752700000000000
H      -5.287200000000000      1.278600000000000     -2.050400000000000
H      -6.665900000000000      0.986700000000000     -0.963100000000000
H      -3.622500000000000     -0.993100000000000      1.913400000000000
H      -4.359500000000000      0.536400000000000      2.378800000000000
H      -8.010199999999999     -1.895700000000000      1.963100000000000
H      -8.042600000000000     -1.569900000000000      0.232500000000000
H      -6.408300000000000     -3.010900000000000     -1.319700000000000
H      -5.382700000000000     -4.201700000000000     -0.526200000000000
H      -3.401400000000000      4.644900000000000     -0.589700000000000
H      -3.797500000000000      3.686200000000000     -2.005700000000000
H      -6.578700000000000      3.141700000000000     -2.360600000000000
H      -7.348300000000000      3.042100000000000     -0.788900000000000
H       3.948700000000000     -1.523900000000000      0.627500000000000
H      -7.600800000000000     -3.953600000000000      0.603000000000000
H      -6.255300000000000     -3.585100000000000      1.679200000000000
H      -5.705900000000000      4.282200000000000      0.297000000000000
H      -5.742800000000000      5.048700000000000     -1.283300000000000
H      -2.260800000000000      1.740600000000000      1.677900000000000
H      -1.985000000000000      0.428000000000000      2.702100000000000
H       2.089700000000000     -2.410400000000000     -1.617400000000000
H       1.988000000000000     -2.602300000000000      0.153300000000000
H       5.940900000000000     -1.311700000000000     -1.039300000000000
H       4.904400000000000     -2.117700000000000     -2.190900000000000
H       5.109300000000000      0.200200000000000     -2.027600000000000
H       2.369900000000000      1.484000000000000     -0.111000000000000
H       2.792500000000000      0.263600000000000      1.062800000000000
H       3.341900000000000     -4.349700000000000     -1.756100000000000
H       2.428600000000000     -4.716400000000000     -0.302600000000000
H       6.338600000000000     -3.104800000000000      0.238500000000000
H       6.125200000000000     -3.841300000000000     -1.339700000000000
H      -1.322300000000000     -1.082600000000000      0.936200000000000
H      -1.666300000000000      0.114500000000000     -0.302600000000000
H       4.339600000000000     -3.927700000000000      1.094900000000000
H       4.826700000000000     -5.234300000000000      0.026600000000000
H       0.679700000000000      0.064500000000000     -1.149000000000000
H       0.905100000000000     -1.180300000000000      0.057300000000000
H       0.067500000000000      1.633000000000000      0.683700000000000
H       0.440200000000000      0.397100000000000      1.889100000000000
H       4.771600000000000      1.363700000000000      0.813900000000000
H       5.619800000000000     -0.132500000000000      0.580700000000000
H       3.761800000000000      2.675000000000000     -0.980200000000000
H       3.223200000000000      1.846000000000000     -2.463600000000000
H       4.868900000000000      2.425800000000000     -2.313800000000000
H       7.232200000000000      1.089900000000000     -0.952600000000000
H       6.412100000000000      2.595000000000000     -0.524100000000000
H       6.874700000000000      2.147300000000000      1.900500000000000
H       7.726400000000000      0.671700000000000      1.454200000000000
H       9.353700000000000      2.046900000000000      0.112400000000000
H       8.521400000000000      3.508500000000000      0.633700000000000
H       9.933500000000000      1.515400000000000      2.481400000000000
H      10.540500000000000      3.108600000000000      1.995500000000000
H       9.093999999999999      2.985200000000000      3.013300000000000
