93

N      -5.791900000000000     -1.018100000000000     -2.184900000000000
N       6.155900000000000      0.831000000000000     -0.589600000000000
C      -2.937600000000000      0.653700000000000      0.621300000000000
C      -3.877900000000000      0.128900000000000     -0.475500000000000
C      -1.634600000000000     -0.142500000000000      0.582000000000000
C      -5.206000000000000      0.944300000000000     -0.628700000000000
C      -4.112100000000000     -1.432200000000000     -0.401600000000000
C       1.299700000000000     -0.369000000000000      0.996500000000000
C       2.601900000000000     -1.166300000000000      0.957000000000000
C      -1.029900000000000     -0.261400000000000      1.986600000000000
C      -0.635600000000000      0.500800000000000     -0.388200000000000
C       0.300500000000000     -1.011900000000000      1.966700000000000
C       0.695000000000000     -0.249400000000000     -0.408200000000000
C       3.595200000000000     -0.485100000000000      0.015900000000000
C      -2.609900000000000      2.156100000000000      0.391400000000000
C      -3.611000000000000      0.446200000000000      1.993000000000000
C      -6.003400000000000      0.391900000000000     -1.852000000000000
C      -5.476200000000000     -1.830400000000000     -1.023900000000000
C       3.895800000000000      0.941900000000000      0.485900000000000
C       4.907400000000000     -1.273100000000000     -0.049300000000000
C      -6.077900000000000      0.917000000000000      0.645700000000000
C      -4.902800000000000      2.435600000000000     -0.915400000000000
C      -2.979200000000000     -2.124700000000000     -1.201500000000000
C      -4.066500000000000     -2.001300000000000      1.032300000000000
C       4.947400000000000      1.654500000000000     -0.390600000000000
C       5.974100000000000     -0.592900000000000     -0.933200000000000
C       2.308500000000000     -2.591000000000000      0.458500000000000
C       3.195200000000000     -1.237600000000000      2.373800000000000
C      -1.676600000000000      2.806100000000000      1.405600000000000
C       5.407100000000000      2.931300000000000      0.352100000000000
C       4.342600000000000      2.118100000000000     -1.727700000000000
C       7.332300000000000     -1.283100000000000     -0.664900000000000
C       5.670600000000000     -0.787400000000000     -2.429300000000000
H      -3.366600000000000      0.317500000000000     -1.432900000000000
H      -1.715200000000000     -1.172100000000000      0.292600000000000
H       1.468200000000000      0.640900000000000      1.387500000000000
H      -1.658000000000000     -0.841100000000000      2.669500000000000
H      -0.845600000000000      0.696900000000000      2.472500000000000
H      -0.357400000000000      1.533400000000000     -0.201900000000000
H      -1.041700000000000      0.483200000000000     -1.407100000000000
H       0.681600000000000     -1.011600000000000      2.993000000000000
H       0.064000000000000     -2.047100000000000      1.710200000000000
H       0.508100000000000     -1.231100000000000     -0.855300000000000
H       1.347700000000000      0.299600000000000     -1.092800000000000
H       3.200100000000000     -0.463900000000000     -1.002400000000000
H      -2.279100000000000      2.398200000000000     -0.621600000000000
H      -3.473300000000000      2.739300000000000      0.663000000000000
H      -4.502800000000000      1.018300000000000      2.183700000000000
H      -2.986700000000000      0.961300000000000      2.737900000000000
H      -3.699300000000000     -0.497600000000000      2.507300000000000
H      -5.721500000000000      0.944100000000000     -2.757400000000000
H      -7.077900000000000      0.570100000000000     -1.723000000000000
H      -6.290300000000000     -1.745800000000000     -0.293600000000000
H      -5.468000000000000     -2.887800000000000     -1.316500000000000
H       2.998000000000000      1.567400000000000      0.484400000000000
H       4.275800000000000      0.933500000000000      1.513600000000000
H       5.355000000000000     -1.383300000000000      0.941500000000000
H       4.744100000000000     -2.284400000000000     -0.437300000000000
H      -6.067300000000000     -0.024000000000000      1.191600000000000
H      -7.131800000000000      1.044600000000000      0.360000000000000
H      -5.923300000000000      1.771600000000000      1.310600000000000
H      -5.728500000000000      2.814200000000000     -1.542000000000000
H      -5.005000000000000      3.129400000000000     -0.077700000000000
H      -4.040000000000000      2.608600000000000     -1.561700000000000
H      -2.385700000000000     -2.826300000000000     -0.602700000000000
H      -3.397400000000000     -2.749300000000000     -2.002100000000000
H      -2.304800000000000     -1.444900000000000     -1.729100000000000
H      -4.897900000000000     -1.678500000000000      1.662600000000000
H      -4.280800000000000     -3.080200000000000      0.939700000000000
H      -3.100100000000000     -2.033600000000000      1.529600000000000
H      -6.614800000000000     -1.382900000000000     -2.662800000000000
H       3.181200000000000     -3.239500000000000      0.603100000000000
H       1.515300000000000     -3.109900000000000      0.997900000000000
H       2.075500000000000     -2.627600000000000     -0.610300000000000
H       4.188300000000000     -1.684300000000000      2.433000000000000
H       2.590400000000000     -1.890900000000000      3.014900000000000
H       3.225700000000000     -0.264600000000000      2.874200000000000
H       6.711100000000000      0.878000000000000      0.266300000000000
H      -1.594700000000000      3.873000000000000      1.156800000000000
H      -2.078300000000000      2.781200000000000      2.423100000000000
H      -0.649400000000000      2.449400000000000      1.442700000000000
H       6.145700000000000      3.490700000000000     -0.234600000000000
H       5.863400000000000      2.695200000000000      1.321100000000000
H       4.561600000000000      3.601900000000000      0.546000000000000
H       5.114800000000000      2.518100000000000     -2.395300000000000
H       3.610100000000000      2.918500000000000     -1.566100000000000
H       3.813700000000000      1.327000000000000     -2.260200000000000
H       8.128399999999999     -0.851800000000000     -1.283800000000000
H       7.282000000000000     -2.355000000000000     -0.890100000000000
H       7.638400000000000     -1.185000000000000      0.383700000000000
H       6.367300000000000     -0.214700000000000     -3.052700000000000
H       4.656700000000000     -0.499100000000000     -2.707900000000000
H       5.776800000000000     -1.841700000000000     -2.713000000000000
