94

O       1.920400000000000      1.678100000000000      2.715800000000000
O       1.852500000000000     -2.687400000000000     -2.441000000000000
C      -3.643500000000000      1.099700000000000      0.793600000000000
C      -0.879600000000000      1.932300000000000      1.501700000000000
C      -3.354500000000000      1.941000000000000      2.043500000000000
C      -2.427200000000000      0.242700000000000      0.420800000000000
C      -4.875900000000000      0.223000000000000      1.006700000000000
C      -2.095600000000000      2.789800000000000      1.874300000000000
C      -1.168700000000000      1.091700000000000      0.251600000000000
C      -5.450800000000000     -0.262000000000000     -0.322900000000000
C       0.353600000000000      2.808200000000000      1.289500000000000
C       2.145500000000000     -1.913400000000000     -0.197600000000000
C       1.653700000000000      1.995600000000000      1.346400000000000
C      -6.251600000000000      0.854300000000000     -1.006500000000000
C      -6.320300000000000     -1.509300000000000     -0.114600000000000
C       3.693000000000000      0.540000000000000     -1.423400000000000
C       2.890600000000000      2.710500000000000      0.748400000000000
C       2.065400000000000     -1.512600000000000     -1.669500000000000
C       3.358700000000000     -0.813300000000000     -2.113700000000000
C       3.388600000000000     -2.773200000000000      0.062900000000000
C       0.872100000000000     -2.652700000000000      0.232700000000000
C       2.566100000000000      1.599400000000000     -1.552700000000000
C       2.825500000000000      2.902200000000000     -0.783000000000000
C      -6.881500000000000      0.377300000000000     -2.313200000000000
C      -6.949900000000000     -1.982500000000000     -1.422800000000000
C       2.191900000000000     -3.967500000000000      1.949800000000000
C       3.465100000000000     -3.228400000000000      1.519100000000000
C       0.948500000000000     -3.108000000000000      1.688800000000000
C      -7.737800000000000     -0.867800000000000     -2.103700000000000
C       5.079000000000000      1.122400000000000     -1.858600000000000
C       3.166900000000000      4.063400000000000      1.419900000000000
C       2.272400000000000     -4.366800000000000      3.421900000000000
C       6.230800000000000      0.133100000000000     -1.628500000000000
C       5.096500000000000      1.540300000000000     -3.335600000000000
H      -3.823700000000000      1.805500000000000     -0.026000000000000
H      -0.704300000000000      1.247000000000000      2.340500000000000
H      -3.234400000000000      1.285100000000000      2.915400000000000
H      -4.204500000000000      2.600300000000000      2.256400000000000
H      -2.596200000000000     -0.303300000000000     -0.512600000000000
H      -2.246600000000000     -0.510900000000000      1.198400000000000
H      -5.647900000000000      0.775900000000000      1.557200000000000
H      -4.605400000000000     -0.631700000000000      1.640300000000000
H      -2.270800000000000      3.546500000000000      1.098800000000000
H      -1.901500000000000      3.331000000000000      2.808100000000000
H      -0.334600000000000      0.421400000000000      0.027400000000000
H      -1.292100000000000      1.745900000000000     -0.621100000000000
H      -4.641400000000000     -0.556800000000000     -1.000500000000000
H       0.383700000000000      3.573200000000000      2.076100000000000
H       0.258000000000000      3.332800000000000      0.333000000000000
H       2.222300000000000     -1.014000000000000      0.421300000000000
H       1.537100000000000      1.034400000000000      0.849500000000000
H      -5.615800000000000      1.718000000000000     -1.226500000000000
H      -7.046100000000000      1.208700000000000     -0.337200000000000
H      -7.114500000000000     -1.292900000000000      0.611400000000000
H      -5.716400000000000     -2.322000000000000      0.306800000000000
H       3.801400000000000      0.312000000000000     -0.356700000000000
H       3.765700000000000      2.089800000000000      0.981600000000000
H       1.197500000000000     -0.866900000000000     -1.835900000000000
H       4.198800000000000     -1.511800000000000     -2.079200000000000
H       3.243200000000000     -0.616200000000000     -3.188600000000000
H       3.393400000000000     -3.656900000000000     -0.587000000000000
H       4.310600000000000     -2.218700000000000     -0.135400000000000
H      -0.001600000000000     -2.004100000000000      0.103200000000000
H       0.704800000000000     -3.536100000000000     -0.395800000000000
H       1.606800000000000      1.180400000000000     -1.242700000000000
H       2.424600000000000      1.847100000000000     -2.611500000000000
H       2.014100000000000      3.599600000000000     -1.026000000000000
H       3.734600000000000      3.395300000000000     -1.142000000000000
H      -6.090500000000000      0.158600000000000     -3.041200000000000
H      -7.495600000000000      1.178300000000000     -2.740100000000000
H      -7.611200000000000     -2.833900000000000     -1.226300000000000
H      -6.162800000000000     -2.338900000000000     -2.098800000000000
H       2.107900000000000     -4.886900000000000      1.355000000000000
H       4.337300000000000     -3.880500000000000      1.648800000000000
H       3.625000000000000     -2.353500000000000      2.162700000000000
H       0.043200000000000     -3.674600000000000      1.937800000000000
H       0.959300000000000     -2.225400000000000      2.341400000000000
H      -8.117900000000001     -1.220900000000000     -3.068900000000000
H      -8.610700000000000     -0.611200000000000     -1.490800000000000
H       5.310400000000000      2.000200000000000     -1.246100000000000
H       2.375300000000000      4.788900000000000      1.206200000000000
H       4.110700000000000      4.485700000000000      1.057800000000000
H       3.249300000000000      3.957300000000000      2.506300000000000
H       2.358100000000000     -3.487600000000000      4.069500000000000
H       3.142100000000000     -5.007100000000000      3.603400000000000
H       1.378300000000000     -4.923000000000000      3.722600000000000
H       1.263600000000000      1.025000000000000      3.008500000000000
H       7.194900000000000      0.637700000000000     -1.759200000000000
H       6.203500000000000     -0.266200000000000     -0.609400000000000
H       6.208300000000000     -0.704800000000000     -2.331800000000000
H       6.081200000000000      1.940100000000000     -3.604000000000000
H       4.369600000000000      2.330200000000000     -3.542800000000000
H       4.893900000000000      0.698900000000000     -4.004900000000000
H       1.797700000000000     -2.420500000000000     -3.374300000000000
