94

N      -7.708200000000000     -0.881300000000000      0.465400000000000
N       7.443700000000000      0.077200000000000     -0.461900000000000
C      -9.548000000000000      0.866700000000000      0.796800000000000
C       9.983800000000000      0.306400000000000     -0.675700000000000
C      -9.030099999999999      2.053900000000000     -0.079500000000000
C      10.265100000000000      1.598400000000000      0.159400000000000
C      -9.657000000000000      1.438900000000000     -1.357300000000000
C      10.313700000000001      0.785200000000000      1.478600000000000
C      -9.033400000000000     -0.424100000000000      0.071400000000000
C       8.746700000000001     -0.360700000000000      0.018300000000000
C     -11.082599999999999      0.894900000000000      0.507200000000000
C      11.191800000000001     -0.602700000000000     -0.284100000000000
C      -9.044100000000000      0.016700000000000     -1.413100000000000
C       8.952100000000000      0.045300000000000      1.498600000000000
C     -11.145200000000001      1.267400000000000     -0.983800000000000
C      11.395500000000000     -0.282000000000000      1.206300000000000
C      -9.256100000000000      0.934900000000000      2.285800000000000
C       9.871700000000001      0.473700000000000     -2.181200000000000
C      -9.592900000000000      3.442500000000000      0.292900000000000
C      -7.501400000000000      2.230900000000000     -0.150300000000000
C      11.570000000000000      2.349400000000000     -0.166900000000000
C       9.150499999999999      2.666000000000000      0.117500000000000
C      -7.472600000000000     -2.246500000000000      0.011800000000000
C       6.393600000000000     -0.832700000000000     -0.020100000000000
C      -6.077600000000000     -2.744200000000000      0.394600000000000
C       5.029200000000000     -0.341900000000000     -0.501400000000000
C      -4.951700000000000     -1.883500000000000     -0.186500000000000
C       3.909100000000000     -1.271900000000000     -0.029900000000000
C      -3.578000000000000     -2.410300000000000      0.234900000000000
C       2.537800000000000     -0.763800000000000     -0.478600000000000
C      -2.452500000000000     -1.535500000000000     -0.320100000000000
C       1.415900000000000     -1.675500000000000      0.021300000000000
C      -1.081000000000000     -2.042700000000000      0.128700000000000
C       0.042600000000000     -1.149400000000000     -0.399200000000000
H      -9.505900000000000      2.007500000000000     -2.278000000000000
H      10.498600000000000      1.366500000000000      2.385000000000000
H      -9.755100000000001     -1.235100000000000      0.236300000000000
H       8.821500000000000     -1.450500000000000     -0.094800000000000
H     -11.606100000000000      1.640100000000000      1.116300000000000
H     -11.567900000000000     -0.067800000000000      0.702800000000000
H      12.093299999999999     -0.360800000000000     -0.858000000000000
H      10.991000000000000     -1.667700000000000     -0.444600000000000
H      -9.638700000000000     -0.669000000000000     -2.027300000000000
H      -8.042199999999999      0.050300000000000     -1.856400000000000
H       8.966200000000001     -0.833600000000000      2.153100000000000
H       8.163300000000000      0.706300000000000      1.875700000000000
H     -11.638000000000000      0.489200000000000     -1.576100000000000
H     -11.706400000000000      2.196100000000000     -1.130300000000000
H      11.273400000000001     -1.171300000000000      1.833400000000000
H      12.401700000000000      0.111100000000000      1.385500000000000
H      -8.184699999999999      1.026400000000000      2.488600000000000
H      -9.623699999999999      0.038500000000000      2.796900000000000
H      -9.746300000000000      1.799600000000000      2.745800000000000
H       9.093900000000000      1.192200000000000     -2.457100000000000
H       9.638299999999999     -0.481600000000000     -2.663500000000000
H      10.812200000000001      0.837000000000000     -2.609100000000000
H      -9.332300000000000      4.177900000000000     -0.477300000000000
H     -10.678100000000001      3.481700000000000      0.405200000000000
H      -9.166600000000001      3.789300000000000      1.241300000000000
H      -6.949700000000000      1.348700000000000     -0.475200000000000
H      -7.099100000000000      2.518800000000000      0.827500000000000
H      -7.243900000000000      3.025800000000000     -0.860500000000000
H      11.767600000000000      3.119800000000000      0.587600000000000
H      12.458299999999999      1.715700000000000     -0.206800000000000
H      11.496100000000000      2.847300000000000     -1.140500000000000
H       8.161500000000000      2.319400000000000      0.415600000000000
H       9.394000000000000      3.491900000000000      0.796900000000000
H       9.055000000000000      3.086400000000000     -0.889800000000000
H      -7.618300000000000     -0.861700000000000      1.480000000000000
H       7.437500000000000      0.102700000000000     -1.480300000000000
H      -8.211100000000000     -2.926500000000000      0.454200000000000
H      -7.576000000000000     -2.313200000000000     -1.077800000000000
H       6.571900000000000     -1.840700000000000     -0.414700000000000
H       6.379400000000000     -0.899500000000000      1.074100000000000
H      -5.964400000000000     -3.777200000000000      0.043500000000000
H      -5.989500000000000     -2.771800000000000      1.488300000000000
H       5.017800000000000     -0.283100000000000     -1.597100000000000
H       4.846600000000000      0.671400000000000     -0.121600000000000
H      -5.054100000000000     -0.846400000000000      0.153700000000000
H      -5.024500000000000     -1.874100000000000     -1.280700000000000
H       3.931300000000000     -1.346500000000000      1.064300000000000
H       4.076100000000000     -2.280700000000000     -0.426400000000000
H      -3.453400000000000     -3.440300000000000     -0.120400000000000
H      -3.515900000000000     -2.435700000000000      1.329700000000000
H       2.506200000000000     -0.706700000000000     -1.573400000000000
H       2.381100000000000      0.252500000000000     -0.096900000000000
H      -2.501300000000000     -1.524000000000000     -1.415700000000000
H      -2.589700000000000     -0.501900000000000      0.020600000000000
H       1.560100000000000     -2.688000000000000     -0.374700000000000
H       1.461200000000000     -1.746400000000000      1.114900000000000
H      -1.039700000000000     -2.073700000000000      1.224300000000000
H      -0.935400000000000     -3.069100000000000     -0.229600000000000
H      -0.010100000000000     -1.098400000000000     -1.493600000000000
H      -0.093100000000000     -0.128800000000000     -0.021100000000000
