94

O      -3.219700000000000      2.149500000000000      1.656200000000000
O      -4.459300000000000      4.086200000000000      1.452000000000000
C      -0.472700000000000     -3.389100000000000      1.553500000000000
C      -1.196500000000000     -3.856100000000000      0.285900000000000
C       1.041900000000000     -3.243800000000000      1.376400000000000
C      -1.204200000000000     -2.805600000000000     -0.826800000000000
C       1.715700000000000     -2.860000000000000      2.696900000000000
C      -1.905700000000000     -3.273500000000000     -2.106500000000000
C       3.245200000000000     -2.820800000000000      2.619700000000000
C      -3.383000000000000     -3.653100000000000     -1.961200000000000
C       3.782100000000000     -1.768900000000000      1.645700000000000
C      -4.287700000000000     -2.573700000000000     -1.359100000000000
C       5.306300000000000     -1.642300000000000      1.748800000000000
C       5.917800000000000     -0.755000000000000      0.659700000000000
C      -4.345200000000000     -1.294900000000000     -2.198900000000000
C       5.476300000000000      0.707600000000000      0.745100000000000
C      -5.352800000000000     -0.269000000000000     -1.667400000000000
C      -0.792600000000000      2.007500000000000      1.396600000000000
C      -0.810400000000000      1.625500000000000     -0.097500000000000
C       6.084000000000000      1.538900000000000     -0.390000000000000
C       0.438500000000000      0.860300000000000     -0.546100000000000
C      -4.955700000000000      0.302000000000000     -0.304600000000000
C       0.479800000000000      0.714100000000000     -2.069900000000000
C       5.502600000000000      2.955900000000000     -0.471200000000000
C      -5.898300000000000      1.423300000000000      0.138800000000000
C       1.611800000000000     -0.192000000000000     -2.565100000000000
C      -1.997200000000000      2.902800000000000      1.736400000000000
C       4.045800000000000      3.022800000000000     -0.948400000000000
C      -5.565300000000000      1.944000000000000      1.533800000000000
C      -0.756900000000000      0.773900000000000      2.302000000000000
C       3.028400000000000      0.283500000000000     -2.229900000000000
C       3.877300000000000      2.686600000000000     -2.402800000000000
C       3.421300000000000      1.545100000000000     -2.941900000000000
C      -4.371700000000000      2.868200000000000      1.539700000000000
H      -0.667800000000000     -4.123200000000000      2.345300000000000
H      -0.901000000000000     -2.438600000000000      1.893000000000000
H      -0.739100000000000     -4.783300000000000     -0.079500000000000
H      -2.228100000000000     -4.099000000000000      0.564600000000000
H       1.253200000000000     -2.478500000000000      0.623700000000000
H       1.460900000000000     -4.188800000000000      1.010800000000000
H      -0.173200000000000     -2.554800000000000     -1.095300000000000
H      -1.662800000000000     -1.879300000000000     -0.462500000000000
H       1.433200000000000     -3.585500000000000      3.469800000000000
H       1.342200000000000     -1.884500000000000      3.030600000000000
H      -1.366700000000000     -4.141800000000000     -2.506500000000000
H      -1.807000000000000     -2.486300000000000     -2.863600000000000
H       3.623000000000000     -3.810800000000000      2.336700000000000
H       3.631200000000000     -2.611200000000000      3.625000000000000
H      -3.465500000000000     -4.558800000000000     -1.348700000000000
H      -3.767400000000000     -3.926800000000000     -2.951900000000000
H       3.311000000000000     -0.804600000000000      1.865800000000000
H       3.511300000000000     -2.040300000000000      0.619100000000000
H      -3.958200000000000     -2.349200000000000     -0.339700000000000
H      -5.300100000000000     -2.987700000000000     -1.272300000000000
H       5.755800000000000     -2.639700000000000      1.666300000000000
H       5.578500000000000     -1.253000000000000      2.737300000000000
H      -4.628000000000000     -1.554600000000000     -3.226400000000000
H      -3.354700000000000     -0.828700000000000     -2.250300000000000
H       5.656400000000000     -1.163700000000000     -0.324300000000000
H       7.010600000000000     -0.804500000000000      0.741900000000000
H       5.780600000000000      1.130100000000000      1.710300000000000
H       4.386800000000000      0.762200000000000      0.707900000000000
H      -6.348700000000000     -0.723900000000000     -1.605700000000000
H      -5.422500000000000      0.550500000000000     -2.393400000000000
H       0.113800000000000      2.596900000000000      1.587100000000000
H      -0.895600000000000      2.543600000000000     -0.692900000000000
H      -1.695300000000000      1.020500000000000     -0.322200000000000
H       0.450800000000000     -0.133400000000000     -0.085900000000000
H       1.328300000000000      1.392600000000000     -0.198100000000000
H       5.956100000000000      1.026100000000000     -1.349600000000000
H       7.165800000000000      1.615800000000000     -0.223300000000000
H      -3.933300000000000      0.683900000000000     -0.366400000000000
H      -4.963700000000000     -0.491300000000000      0.450900000000000
H       0.561700000000000      1.703800000000000     -2.534500000000000
H      -0.470500000000000      0.285700000000000     -2.413400000000000
H       6.129800000000000      3.553500000000000     -1.145000000000000
H       5.572800000000000      3.427400000000000      0.516900000000000
H      -6.925400000000000      1.038700000000000      0.147500000000000
H      -5.866000000000000      2.243600000000000     -0.588400000000000
H       1.514800000000000     -0.308100000000000     -3.652100000000000
H       1.476800000000000     -1.192900000000000     -2.138100000000000
H      -1.901900000000000      3.279100000000000      2.761500000000000
H      -2.027000000000000      3.760400000000000      1.053600000000000
H       3.687100000000000      4.051300000000000     -0.811600000000000
H       3.399900000000000      2.411200000000000     -0.315000000000000
H       0.185100000000000      0.229200000000000      2.187300000000000
H      -0.837300000000000      1.063300000000000      3.355300000000000
H      -1.576500000000000      0.084000000000000      2.075300000000000
H      -5.404400000000000      1.129100000000000      2.248800000000000
H      -6.414400000000000      2.521000000000000      1.920500000000000
H       3.731100000000000     -0.498800000000000     -2.544400000000000
H       3.143600000000000      0.366400000000000     -1.148100000000000
H       4.150100000000000      3.483200000000000     -3.093600000000000
H       3.368800000000000      1.500700000000000     -4.028800000000000
