94

O       1.861600000000000     -1.206000000000000     -1.525900000000000
O       2.271500000000000      4.965200000000000      1.765600000000000
C      -2.933000000000000      1.720800000000000     -0.698200000000000
C      -0.345100000000000      3.108900000000000     -0.240600000000000
C      -3.753600000000000      0.571600000000000     -1.280200000000000
C      -1.909800000000000      1.196000000000000      0.317100000000000
C      -2.237000000000000      2.508900000000000     -1.815100000000000
C      -4.888000000000000      0.166000000000000     -0.341200000000000
C      -1.041000000000000      2.321100000000000      0.876600000000000
C      -1.368500000000000      3.634100000000000     -1.255400000000000
C       0.476800000000000      4.257900000000000      0.340700000000000
C       1.552600000000000     -2.694100000000000      0.332600000000000
C      -6.066400000000000      1.141700000000000     -0.461800000000000
C      -5.338900000000000     -1.273000000000000     -0.625900000000000
C       4.126500000000000      0.233800000000000     -0.262400000000000
C       2.545400000000000     -1.832400000000000     -0.445300000000000
C       3.164900000000000     -0.754400000000000      0.457100000000000
C       0.218800000000000     -1.957600000000000      0.510000000000000
C       1.341100000000000     -4.042500000000000     -0.367300000000000
C       1.632900000000000      3.801200000000000      1.238300000000000
C      -1.019900000000000     -4.167700000000000      0.543000000000000
C      -7.235200000000000      0.726900000000000      0.429000000000000
C      -6.509100000000000     -1.683900000000000      0.265000000000000
C      -0.808600000000000     -2.818800000000000      1.242500000000000
C       0.314000000000000     -4.903900000000000      0.365300000000000
C       4.629000000000000      1.318100000000000      0.727000000000000
C       5.285700000000000     -0.518300000000000     -1.001300000000000
C      -7.674900000000000     -0.706800000000000      0.149200000000000
C       2.684600000000000      2.971600000000000      0.489900000000000
C       3.555000000000000      2.145300000000000      1.446200000000000
C       6.088000000000000     -1.401700000000000     -0.017400000000000
C      -2.011600000000000     -5.029600000000000      1.321800000000000
C       6.211000000000000      0.420800000000000     -1.784600000000000
C       7.181400000000000     -2.219300000000000     -0.694600000000000
H      -3.592200000000000      2.426200000000000     -0.177600000000000
H       0.302200000000000      2.420300000000000     -0.793100000000000
H      -3.093300000000000     -0.283300000000000     -1.475700000000000
H      -4.175100000000000      0.854100000000000     -2.253600000000000
H      -1.260700000000000      0.458000000000000     -0.167000000000000
H      -2.407700000000000      0.686600000000000      1.149000000000000
H      -2.984600000000000      2.938400000000000     -2.492900000000000
H      -1.613400000000000      1.834100000000000     -2.415400000000000
H      -4.534500000000000      0.187900000000000      0.697400000000000
H      -1.662400000000000      2.992700000000000      1.482400000000000
H      -0.306700000000000      1.866500000000000      1.549500000000000
H      -0.852100000000000      4.134700000000000     -2.083200000000000
H      -2.012700000000000      4.386000000000000     -0.782000000000000
H       1.971500000000000     -2.913100000000000      1.324500000000000
H      -0.170700000000000      4.938400000000000      0.909900000000000
H       0.887600000000000      4.869700000000000     -0.474000000000000
H      -6.411400000000000      1.184800000000000     -1.503000000000000
H      -5.764400000000000      2.158000000000000     -0.187900000000000
H      -4.504800000000000     -1.966600000000000     -0.464000000000000
H      -5.634300000000000     -1.369800000000000     -1.678500000000000
H       3.553200000000000      0.745900000000000     -1.045700000000000
H       3.338200000000000     -2.464800000000000     -0.856800000000000
H       3.656500000000000     -1.213200000000000      1.322200000000000
H       2.340600000000000     -0.156700000000000      0.858600000000000
H       0.356400000000000     -1.030400000000000      1.075700000000000
H      -0.212400000000000     -1.685300000000000     -0.460700000000000
H       1.002300000000000     -3.889400000000000     -1.399300000000000
H       2.290400000000000     -4.588700000000000     -0.423500000000000
H       1.239800000000000      3.248100000000000      2.096600000000000
H      -1.446000000000000     -3.978400000000000     -0.451300000000000
H      -1.759700000000000     -2.275300000000000      1.299800000000000
H      -0.473200000000000     -2.980700000000000      2.274900000000000
H       0.156100000000000     -5.832700000000000     -0.195900000000000
H       0.716800000000000     -5.190300000000000      1.345300000000000
H      -8.079000000000001      1.407900000000000      0.270600000000000
H      -6.942500000000000      0.820600000000000      1.482100000000000
H      -6.174000000000000     -1.730900000000000      1.308600000000000
H      -6.843800000000000     -2.691000000000000     -0.008100000000000
H       5.286000000000000      2.016900000000000      0.196300000000000
H       5.244000000000000      0.845000000000000      1.501400000000000
H       4.831300000000000     -1.175100000000000     -1.753300000000000
H      -8.467300000000000     -0.993100000000000      0.849900000000000
H      -8.102399999999999     -0.767000000000000     -0.859200000000000
H       2.209000000000000      2.275500000000000     -0.200600000000000
H       3.329500000000000      3.632600000000000     -0.102300000000000
H       4.070600000000000      2.825400000000000      2.135600000000000
H       2.928500000000000      1.503800000000000      2.074900000000000
H       6.554000000000000     -0.788900000000000      0.761500000000000
H       5.427300000000000     -2.113900000000000      0.485700000000000
H      -1.641700000000000     -5.253000000000000      2.328200000000000
H      -2.187900000000000     -5.979900000000000      0.807000000000000
H      -2.975100000000000     -4.518500000000000      1.420800000000000
H       6.879200000000000      0.978700000000000     -1.121000000000000
H       6.831300000000000     -0.137100000000000     -2.493500000000000
H       5.626600000000000      1.140800000000000     -2.367300000000000
H       1.604000000000000     -1.898400000000000     -2.157200000000000
H       2.924300000000000      4.675300000000000      2.424400000000000
H       7.982900000000000     -1.582000000000000     -1.079400000000000
H       7.631500000000000     -2.910500000000000      0.025700000000000
H       6.775800000000000     -2.810500000000000     -1.521600000000000
