94

O       5.033800000000000     -1.568500000000000     -2.846200000000000
N      -2.589400000000000      1.795100000000000      0.253900000000000
C      -2.646100000000000     -1.221300000000000     -0.137200000000000
C       2.372500000000000     -1.493200000000000      0.516100000000000
C      -3.287700000000000     -2.647100000000000      0.051900000000000
C       1.042500000000000     -1.306600000000000      1.284500000000000
C      -3.866900000000000     -0.294900000000000      0.132600000000000
C       2.981400000000000     -0.113000000000000      0.019200000000000
C      -1.505000000000000     -0.926500000000000      0.851500000000000
C      -0.171000000000000     -1.480100000000000      0.338400000000000
C      -4.659800000000000     -2.493400000000000     -0.641800000000000
C      -5.063300000000000     -1.023300000000000     -0.496000000000000
C       2.079700000000000     -2.425800000000000     -0.694500000000000
C       4.178600000000000     -0.365000000000000     -0.939400000000000
C      -3.755700000000000      1.148600000000000     -0.346700000000000
C      -2.082000000000000     -1.015500000000000     -1.563600000000000
C       3.335200000000000     -2.232400000000000      1.480500000000000
C       3.278500000000000     -2.627600000000000     -1.615200000000000
C       3.504800000000000      0.755000000000000      1.188500000000000
C       3.848200000000000     -1.301200000000000     -2.101300000000000
C      -2.487500000000000     -3.793000000000000     -0.588800000000000
C      -3.516600000000000     -3.026900000000000      1.534300000000000
C       1.044300000000000      0.074800000000000      1.952600000000000
C       0.966200000000000     -2.385900000000000      2.378200000000000
C       1.929400000000000      0.746600000000000     -0.727300000000000
C      -5.010100000000000      1.942600000000000      0.005200000000000
C       4.493000000000000      1.789800000000000      0.682800000000000
C      -2.188700000000000      2.958300000000000     -0.522000000000000
C       4.991500000000000      2.656000000000000      1.828400000000000
C      -0.967200000000000      3.622200000000000      0.116100000000000
C      -0.475700000000000      4.863100000000000     -0.653100000000000
C       0.781000000000000      5.475600000000000     -0.032800000000000
C      -1.587900000000000      5.913500000000000     -0.709000000000000
H      -4.039700000000000     -0.265300000000000      1.218700000000000
H      -1.355000000000000      0.136800000000000      0.992000000000000
H      -1.727500000000000     -1.300000000000000      1.852700000000000
H       0.039800000000000     -0.915600000000000     -0.564100000000000
H      -0.282400000000000     -2.531900000000000      0.088600000000000
H      -5.423900000000000     -3.158100000000000     -0.223700000000000
H      -4.585200000000000     -2.735700000000000     -1.709400000000000
H      -5.325300000000000     -0.621800000000000     -1.481900000000000
H      -5.950200000000000     -0.929400000000000      0.140800000000000
H       1.320500000000000     -2.046100000000000     -1.380700000000000
H       1.745100000000000     -3.414800000000000     -0.356400000000000
H       5.046500000000000     -0.765300000000000     -0.399700000000000
H       4.517100000000000      0.561700000000000     -1.419800000000000
H      -3.662900000000000      1.145400000000000     -1.440300000000000
H      -1.350700000000000     -1.764000000000000     -1.879500000000000
H      -1.616000000000000     -0.031100000000000     -1.685300000000000
H      -2.884900000000000     -1.063000000000000     -2.309000000000000
H       3.451300000000000     -1.759000000000000      2.459600000000000
H       4.348100000000000     -2.247500000000000      1.061300000000000
H       3.101900000000000     -3.294800000000000      1.613800000000000
H       4.059100000000000     -3.205300000000000     -1.104400000000000
H       2.989900000000000     -3.240900000000000     -2.478300000000000
H       2.769500000000000      1.401300000000000      1.658900000000000
H       4.010300000000000      0.170400000000000      1.960000000000000
H       3.142200000000000     -0.832800000000000     -2.794500000000000
H      -1.565500000000000     -4.022600000000000     -0.052500000000000
H      -2.262200000000000     -3.630400000000000     -1.645300000000000
H      -3.083000000000000     -4.715200000000000     -0.555500000000000
H      -2.574700000000000     -3.243700000000000      2.049200000000000
H      -4.122000000000000     -3.939000000000000      1.606000000000000
H      -4.045500000000000     -2.253000000000000      2.097300000000000
H       0.162900000000000      0.082500000000000      2.617900000000000
H       0.867100000000000      1.005000000000000      1.431300000000000
H       1.818800000000000      0.141100000000000      2.725100000000000
H      -0.024100000000000     -2.354200000000000      2.851900000000000
H       1.045000000000000     -3.405400000000000      1.984000000000000
H       1.647900000000000     -2.246200000000000      3.222600000000000
H       1.690700000000000      0.284400000000000     -1.692200000000000
H       2.332000000000000      1.729500000000000     -0.994300000000000
H       0.953500000000000      0.941200000000000     -0.309600000000000
H      -5.164300000000000      1.991100000000000      1.089600000000000
H      -5.906400000000000      1.491100000000000     -0.432700000000000
H      -4.979000000000000      2.968700000000000     -0.373100000000000
H       5.400600000000000      1.334000000000000      0.275400000000000
H       4.067400000000000      2.450300000000000     -0.078100000000000
H      -2.786100000000000      2.060600000000000      1.218300000000000
H       5.377600000000000     -0.717200000000000     -3.166500000000000
H      -3.006200000000000      3.680000000000000     -0.569700000000000
H      -1.933900000000000      2.663700000000000     -1.547000000000000
H       4.170000000000000      3.213300000000000      2.290300000000000
H       5.724500000000000      3.382700000000000      1.462900000000000
H       5.475000000000000      2.051000000000000      2.602500000000000
H      -0.146900000000000      2.898500000000000      0.171000000000000
H      -1.199900000000000      3.905800000000000      1.151400000000000
H      -0.229800000000000      4.565900000000000     -1.680500000000000
H       1.129300000000000      6.333000000000000     -0.618200000000000
H       1.591800000000000      4.740000000000000     -0.000500000000000
H       0.592000000000000      5.815600000000000      0.991000000000000
H      -2.417000000000000      5.594700000000000     -1.347500000000000
H      -1.211500000000000      6.850400000000000     -1.135000000000000
H      -1.981400000000000      6.135800000000000      0.288700000000000
