94

O      -4.161500000000000      2.425800000000000      0.449300000000000
O       5.534800000000000      0.813700000000000     -1.204500000000000
C      -3.032900000000000      0.750100000000000     -0.843900000000000
C      -1.903000000000000     -1.027700000000000     -2.308500000000000
C      -3.227300000000000     -0.437600000000000     -1.799100000000000
C      -4.384000000000000      1.340500000000000     -0.440700000000000
C      -5.272900000000000      0.297800000000000      0.234500000000000
C      -2.145200000000000      1.825300000000000     -1.482700000000000
C      -1.007900000000000      0.070000000000000     -2.900100000000000
C      -0.811400000000000      1.254400000000000     -1.956700000000000
C      -1.179000000000000     -1.822300000000000     -1.218200000000000
C      -4.590600000000000     -0.266200000000000      1.488200000000000
C      -6.643200000000000      0.896000000000000      0.580600000000000
C      -0.219800000000000     -2.850300000000000     -1.821100000000000
C       3.458700000000000      1.436300000000000     -0.179600000000000
C       0.464000000000000     -3.743000000000000     -0.767700000000000
C       3.377100000000000     -1.567300000000000      0.891700000000000
C      -5.482700000000000     -1.272700000000000      2.211100000000000
C      -7.531900000000000     -0.112400000000000      1.305200000000000
C       4.292700000000000      0.283200000000000     -0.734600000000000
C      -6.846800000000000     -0.677200000000000      2.545700000000000
C       4.595400000000000     -0.807300000000000      0.303800000000000
C       1.268000000000000     -2.975300000000000      0.306100000000000
C       2.535300000000000     -2.274800000000000     -0.205400000000000
C       4.137300000000000      2.053300000000000      1.050000000000000
C       3.217500000000000      2.499100000000000     -1.259000000000000
C       3.104900000000000      4.304300000000000      0.515000000000000
C       3.346700000000000      3.241600000000000      1.594500000000000
C       2.426600000000000      3.687200000000000     -0.714600000000000
C       3.812000000000000     -2.531500000000000      2.045800000000000
C       1.332900000000000     -4.795100000000000     -1.466800000000000
C       2.269600000000000      5.456500000000000      1.069900000000000
C       4.562100000000000     -1.797100000000000      3.165200000000000
C       4.704700000000000     -3.677300000000000      1.546500000000000
H      -2.485700000000000      0.420600000000000      0.046700000000000
H      -2.161600000000000     -1.722000000000000     -3.119500000000000
H      -3.817400000000000     -0.109100000000000     -2.665300000000000
H      -3.789200000000000     -1.250000000000000     -1.329300000000000
H      -4.903800000000000      1.735700000000000     -1.323200000000000
H      -5.478500000000000     -0.527900000000000     -0.455600000000000
H      -1.933700000000000      2.630900000000000     -0.770300000000000
H      -2.664600000000000      2.281500000000000     -2.335300000000000
H      -1.475500000000000      0.438100000000000     -3.823000000000000
H      -0.031600000000000     -0.328500000000000     -3.194700000000000
H      -0.205900000000000      0.958600000000000     -1.092500000000000
H      -0.246300000000000      2.038400000000000     -2.474400000000000
H      -1.913500000000000     -2.366100000000000     -0.610700000000000
H      -0.650700000000000     -1.149900000000000     -0.537500000000000
H      -3.663000000000000     -0.790400000000000      1.239700000000000
H      -4.331000000000000      0.540400000000000      2.184800000000000
H      -7.148200000000000      1.229700000000000     -0.333800000000000
H      -6.525600000000000      1.780900000000000      1.218700000000000
H       0.546500000000000     -2.344800000000000     -2.419100000000000
H      -0.776900000000000     -3.495000000000000     -2.513500000000000
H       2.477400000000000      1.050200000000000      0.125200000000000
H      -0.329900000000000     -4.284600000000000     -0.235000000000000
H       2.720200000000000     -0.822300000000000      1.359800000000000
H      -4.991200000000000     -1.606900000000000      3.131900000000000
H      -5.616900000000000     -2.160400000000000      1.580600000000000
H      -7.784900000000000     -0.932800000000000      0.622300000000000
H      -8.475099999999999      0.366500000000000      1.591200000000000
H       3.791500000000000     -0.149500000000000     -1.606700000000000
H       5.230100000000000     -0.385800000000000      1.087700000000000
H       5.247600000000000     -1.538700000000000     -0.192800000000000
H      -7.482700000000000     -1.444500000000000      3.001300000000000
H      -6.724300000000000      0.119700000000000      3.289500000000000
H       0.630200000000000     -2.253700000000000      0.827100000000000
H       1.551300000000000     -3.716900000000000      1.061600000000000
H       2.218800000000000     -1.527100000000000     -0.940400000000000
H       3.177900000000000     -2.979100000000000     -0.742500000000000
H       4.220800000000000      1.324600000000000      1.862500000000000
H       5.154100000000000      2.385400000000000      0.807000000000000
H       4.169200000000000      2.869900000000000     -1.659100000000000
H       2.669900000000000      2.058000000000000     -2.100700000000000
H       4.077300000000000      4.710800000000000      0.206100000000000
H       2.386500000000000      2.885400000000000      1.989700000000000
H       3.892000000000000      3.682900000000000      2.437400000000000
H       2.321700000000000      4.442600000000000     -1.502600000000000
H       1.412400000000000      3.356800000000000     -0.455700000000000
H       2.915300000000000     -2.962300000000000      2.504500000000000
H      -3.922400000000000      3.203900000000000     -0.081900000000000
H       2.068300000000000     -4.340500000000000     -2.138000000000000
H       1.864800000000000     -5.414100000000000     -0.736800000000000
H       0.708400000000000     -5.461600000000000     -2.072000000000000
H       1.282300000000000      5.112200000000000      1.396300000000000
H       2.767900000000000      5.918900000000000      1.928400000000000
H       2.123800000000000      6.231300000000000      0.309800000000000
H       5.577900000000000     -1.511100000000000      2.876100000000000
H       4.652600000000000     -2.445500000000000      4.044300000000000
H       4.019800000000000     -0.898000000000000      3.475500000000000
H       5.645000000000000     -3.315700000000000      1.120000000000000
H       4.195300000000000     -4.286300000000000      0.794500000000000
H       4.960100000000000     -4.345600000000000      2.376900000000000
H       6.035500000000000      0.081200000000000     -1.602300000000000
