94

O       4.598000000000000     -1.379900000000000     -1.657200000000000
O       4.184700000000000     -3.599400000000000     -1.171600000000000
C      -5.382100000000000     -2.494700000000000      1.569600000000000
C      -4.485000000000000     -1.322800000000000      1.981700000000000
C      -4.987800000000000     -3.210000000000000      0.271000000000000
C      -3.039500000000000     -1.733800000000000      2.273000000000000
C      -4.801500000000000     -2.303900000000000     -0.950700000000000
C      -2.178300000000000     -0.515700000000000      2.616200000000000
C      -6.085600000000000     -1.583300000000000     -1.372300000000000
C      -0.781700000000000     -0.875400000000000      3.131300000000000
C      -5.885300000000000     -0.646700000000000     -2.570300000000000
C       5.060200000000000      0.083700000000000      0.820600000000000
C       5.852600000000000     -1.187100000000000      0.443900000000000
C       0.070100000000000     -1.746200000000000      2.204100000000000
C       5.627500000000000      1.391600000000000      0.257900000000000
C      -4.986900000000000      0.567800000000000     -2.302700000000000
C       4.758300000000000      2.613500000000000      0.579000000000000
C       0.381700000000000     -1.088800000000000      0.858000000000000
C      -5.596100000000000      1.562000000000000     -1.308400000000000
C       3.427100000000000      2.610400000000000     -0.178200000000000
C       1.286300000000000     -1.987500000000000      0.010900000000000
C      -4.673300000000000      2.747100000000000     -1.004800000000000
C       2.648900000000000      3.909400000000000      0.043600000000000
C       5.911400000000000     -1.442900000000000     -1.070900000000000
C       1.625100000000000     -1.340600000000000     -1.334700000000000
C      -3.502800000000000      2.360500000000000     -0.096900000000000
C       1.382700000000000      4.007500000000000     -0.817400000000000
C       7.262400000000000     -1.185200000000000      1.034400000000000
C       2.481900000000000     -2.246300000000000     -2.216300000000000
C      -2.626000000000000      3.567900000000000      0.237500000000000
C       0.339600000000000      2.906500000000000     -0.596300000000000
C       3.842800000000000     -2.513600000000000     -1.621600000000000
C      -1.498100000000000      3.171300000000000      1.145200000000000
C      -0.231300000000000      2.904900000000000      0.792400000000000
H      -5.398500000000000     -3.234200000000000      2.380200000000000
H      -6.411300000000000     -2.127600000000000      1.479300000000000
H      -4.911600000000000     -0.868200000000000      2.884900000000000
H      -4.506400000000000     -0.544500000000000      1.211600000000000
H      -5.751000000000000     -3.965100000000000      0.044900000000000
H      -4.056700000000000     -3.765400000000000      0.435800000000000
H      -2.613400000000000     -2.239500000000000      1.400800000000000
H      -3.026100000000000     -2.447300000000000      3.105400000000000
H      -4.456100000000000     -2.923300000000000     -1.788000000000000
H      -3.998100000000000     -1.588900000000000     -0.751200000000000
H      -2.680500000000000      0.079000000000000      3.389500000000000
H      -2.095300000000000      0.131000000000000      1.735900000000000
H      -6.511500000000000     -1.024500000000000     -0.534300000000000
H      -6.833300000000000     -2.337500000000000     -1.648200000000000
H      -0.886800000000000     -1.397600000000000      4.090700000000000
H      -0.240000000000000      0.054300000000000      3.345700000000000
H      -6.867800000000000     -0.294200000000000     -2.907800000000000
H      -5.459700000000000     -1.220800000000000     -3.402600000000000
H       5.016100000000000      0.160600000000000      1.914800000000000
H       4.025200000000000     -0.048100000000000      0.489500000000000
H       5.307600000000000     -2.024600000000000      0.900100000000000
H      -0.418800000000000     -2.713900000000000      2.043300000000000
H       1.014500000000000     -1.963700000000000      2.719400000000000
H       5.752000000000000      1.323800000000000     -0.828000000000000
H       6.623200000000000      1.563800000000000      0.682300000000000
H      -4.823100000000000      1.086800000000000     -3.255700000000000
H      -4.001400000000000      0.234100000000000     -1.966800000000000
H       5.322600000000000      3.513500000000000      0.305000000000000
H       4.575300000000000      2.669400000000000      1.658700000000000
H       0.876300000000000     -0.125300000000000      1.027000000000000
H      -0.545300000000000     -0.890000000000000      0.308700000000000
H      -5.857400000000000      1.066400000000000     -0.367900000000000
H      -6.531200000000000      1.949100000000000     -1.731700000000000
H       2.820800000000000      1.763700000000000      0.156800000000000
H       3.615200000000000      2.475600000000000     -1.250100000000000
H       0.788200000000000     -2.949600000000000     -0.160500000000000
H       2.208300000000000     -2.195400000000000      0.566700000000000
H      -5.264400000000000      3.524800000000000     -0.505400000000000
H      -4.300600000000000      3.181800000000000     -1.939900000000000
H       3.292900000000000      4.761900000000000     -0.206200000000000
H       2.395900000000000      4.014300000000000      1.104800000000000
H       6.522800000000000     -0.686900000000000     -1.574700000000000
H       6.377400000000000     -2.411900000000000     -1.288700000000000
H       2.138300000000000     -0.387200000000000     -1.164800000000000
H       0.695700000000000     -1.110700000000000     -1.869700000000000
H      -2.889800000000000      1.591400000000000     -0.580900000000000
H      -3.892700000000000      1.922100000000000      0.830400000000000
H       1.677400000000000      3.994600000000000     -1.874500000000000
H       0.917000000000000      4.985500000000000     -0.640500000000000
H       7.233200000000000     -1.005100000000000      2.114000000000000
H       7.747800000000000     -2.153600000000000      0.871500000000000
H       7.893400000000000     -0.417000000000000      0.576200000000000
H       2.623000000000000     -1.796800000000000     -3.206000000000000
H       1.981700000000000     -3.208000000000000     -2.379700000000000
H      -3.223100000000000      4.335200000000000      0.745500000000000
H      -2.256000000000000      4.034700000000000     -0.681400000000000
H       0.776300000000000      1.921700000000000     -0.795500000000000
H      -0.448900000000000      3.026400000000000     -1.346600000000000
H      -1.750800000000000      3.090400000000000      2.201000000000000
H       0.454200000000000      2.620100000000000      1.588400000000000
