94

N       5.766400000000000      0.299700000000000     -0.676300000000000
N      12.760500000000000     -1.741900000000000      0.759500000000000
C      -2.928300000000000      1.069300000000000      0.500400000000000
C      -2.299100000000000      0.485100000000000     -0.783300000000000
C      -0.868700000000000      0.979300000000000     -1.025500000000000
C       0.015900000000000      0.557600000000000      0.193000000000000
C       1.520100000000000      0.980700000000000      0.001500000000000
C      -4.333600000000000      0.427000000000000      0.400200000000000
C       2.013200000000000      0.352700000000000     -1.341900000000000
C      -2.087100000000000      0.595100000000000      1.693900000000000
C      -0.608200000000000      0.997300000000000      1.543800000000000
C      -3.361400000000000      0.734600000000000     -1.849600000000000
C      -0.300400000000000      0.432500000000000     -2.342800000000000
C      -4.694900000000000      0.569600000000000     -1.097100000000000
C       1.168700000000000      0.798700000000000     -2.540900000000000
C       2.401700000000000      0.401800000000000      1.144200000000000
C      -3.022400000000000      2.615900000000000      0.512200000000000
C       3.511800000000000      0.579800000000000     -1.596700000000000
C      -5.406400000000000      0.985700000000000      1.323900000000000
C       1.662000000000000      2.524600000000000      0.009300000000000
C       3.906200000000000      0.581000000000000      0.911300000000000
C       4.350000000000000      0.019100000000000     -0.442100000000000
C      -6.838100000000000      0.661200000000000      0.845000000000000
C      -5.206800000000000      0.441300000000000      2.743800000000000
C      -7.099600000000000     -0.840100000000000      0.687900000000000
C       6.604400000000000     -0.644200000000000      0.046400000000000
C      -8.499900000000000     -1.164500000000000      0.150400000000000
C       8.080299999999999     -0.359100000000000     -0.225400000000000
C      -8.852200000000000     -2.659600000000000      0.033300000000000
C       8.980600000000001     -1.347700000000000      0.518900000000000
C      -7.867400000000000     -3.348300000000000     -0.916300000000000
C     -10.283600000000000     -2.886600000000000     -0.453400000000000
C      10.460900000000001     -1.043200000000000      0.278900000000000
C      11.355600000000001     -2.054500000000000      0.993700000000000
H      -2.235900000000000     -0.610600000000000     -0.671000000000000
H      -0.881500000000000      2.070100000000000     -1.112800000000000
H       0.005900000000000     -0.544000000000000      0.215600000000000
H      -4.226400000000000     -0.651400000000000      0.592400000000000
H       1.881200000000000     -0.737900000000000     -1.260800000000000
H      -2.147900000000000     -0.496000000000000      1.793600000000000
H      -2.447800000000000      1.019600000000000      2.633800000000000
H      -0.056100000000000      0.544100000000000      2.374600000000000
H      -0.520000000000000      2.080900000000000      1.669600000000000
H      -3.279700000000000      1.743800000000000     -2.268700000000000
H      -3.282400000000000      0.024000000000000     -2.678800000000000
H      -0.877600000000000      0.818500000000000     -3.191200000000000
H      -0.402200000000000     -0.660200000000000     -2.364700000000000
H      -5.307700000000000      1.454000000000000     -1.302100000000000
H      -5.229100000000000     -0.304600000000000     -1.479600000000000
H       1.531200000000000      0.310000000000000     -3.453500000000000
H       1.267500000000000      1.877300000000000     -2.708000000000000
H       2.148500000000000      0.871600000000000      2.101800000000000
H       2.193400000000000     -0.670300000000000      1.258500000000000
H      -3.379600000000000      2.979700000000000      1.482200000000000
H      -2.055000000000000      3.097800000000000      0.347800000000000
H      -3.700900000000000      3.002000000000000     -0.254800000000000
H       3.720100000000000      1.645800000000000     -1.748200000000000
H       3.798100000000000      0.077000000000000     -2.530300000000000
H      -5.363300000000000      2.078400000000000      1.372600000000000
H       2.682300000000000      2.850900000000000     -0.210100000000000
H       1.410100000000000      2.940700000000000      0.990300000000000
H       1.016900000000000      3.012100000000000     -0.725500000000000
H       4.168300000000000      1.643400000000000      0.987000000000000
H       4.432300000000000      0.079200000000000      1.731600000000000
H       4.184900000000000     -1.067800000000000     -0.439800000000000
H      -7.059600000000000      1.175300000000000     -0.096400000000000
H      -7.556900000000000      1.069500000000000      1.568000000000000
H      -4.978500000000000     -0.629200000000000      2.756200000000000
H      -4.404700000000000      0.971000000000000      3.260600000000000
H      -6.105200000000000      0.596700000000000      3.352200000000000
H       5.972400000000000      0.224600000000000     -1.672500000000000
H      -6.990900000000000     -1.332300000000000      1.661600000000000
H      -6.358900000000000     -1.294300000000000      0.029900000000000
H       6.434000000000000     -0.575300000000000      1.126000000000000
H       6.378500000000000     -1.672100000000000     -0.263700000000000
H      -8.617300000000000     -0.688900000000000     -0.832300000000000
H      -9.238899999999999     -0.688800000000000      0.808400000000000
H       8.282000000000000     -0.423900000000000     -1.302100000000000
H       8.323100000000000      0.664200000000000      0.087700000000000
H      -8.755400000000000     -3.120800000000000      1.024200000000000
H       8.768400000000000     -1.303000000000000      1.594200000000000
H       8.755800000000001     -2.368600000000000      0.186900000000000
H      -7.833900000000000     -2.848500000000000     -1.890400000000000
H      -8.159400000000000     -4.390900000000000     -1.084700000000000
H      -6.854800000000000     -3.368000000000000     -0.502500000000000
H     -10.434900000000001     -2.462400000000000     -1.451800000000000
H     -10.516800000000000     -3.955600000000000     -0.498500000000000
H     -11.001099999999999     -2.415500000000000      0.226600000000000
H      10.667000000000000     -1.062200000000000     -0.798900000000000
H      10.687600000000000     -0.029600000000000      0.632900000000000
H      11.160399999999999     -2.034600000000000      2.071200000000000
H      11.144700000000000     -3.067800000000000      0.634700000000000
H      12.960300000000000     -1.785600000000000     -0.238900000000000
H      13.342700000000001     -2.453800000000000      1.198800000000000
