94

O       6.435900000000000      0.542800000000000     -0.762200000000000
O       0.104700000000000     -2.200700000000000      1.573600000000000
C       2.118100000000000      2.702000000000000      0.534300000000000
C      -0.705600000000000      3.428000000000000     -0.042700000000000
C       1.483000000000000      2.427000000000000     -0.834700000000000
C       1.051800000000000      2.714600000000000      1.636800000000000
C       0.360700000000000      3.415800000000000     -1.145400000000000
C      -0.070300000000000      3.703500000000000      1.326000000000000
C       3.201100000000000      1.670200000000000      0.843700000000000
C      -1.789600000000000      4.458800000000000     -0.351800000000000
C       4.367900000000000      1.669900000000000     -0.170600000000000
C      -4.277700000000000     -0.858800000000000      0.325900000000000
C      -1.371100000000000     -1.288300000000000     -0.053800000000000
C      -3.740000000000000     -1.751800000000000     -0.800300000000000
C      -3.252300000000000      0.217700000000000      0.706500000000000
C      -2.388200000000000     -2.363100000000000     -0.437700000000000
C      -1.900000000000000     -0.393400000000000      1.067200000000000
C       5.373000000000000      0.544800000000000      0.189300000000000
C       2.254000000000000     -2.835900000000000     -0.113200000000000
C      -5.604900000000000     -0.220100000000000     -0.079500000000000
C       4.719200000000000     -0.845700000000000      0.240200000000000
C       0.948900000000000     -2.229000000000000     -0.676100000000000
C      -0.092800000000000     -1.931600000000000      0.388600000000000
C       3.446500000000000     -2.637700000000000     -1.083100000000000
C       4.083600000000000     -1.241700000000000     -1.098500000000000
C       5.034500000000000      3.050400000000000     -0.238300000000000
C      -2.830600000000000      4.493300000000000      0.764600000000000
C      -2.451000000000000      4.155800000000000     -1.694200000000000
C       2.029700000000000     -4.336300000000000      0.257500000000000
C      -6.680300000000000     -1.244900000000000     -0.472000000000000
C       2.144600000000000     -5.292200000000000     -0.933600000000000
C       2.959400000000000     -4.800100000000000      1.384400000000000
C      -7.013200000000000     -2.208700000000000      0.667700000000000
C      -7.948800000000000     -0.514300000000000     -0.918600000000000
H       2.560500000000000      3.705200000000000      0.518800000000000
H      -1.162300000000000      2.430900000000000     -0.009100000000000
H       1.084400000000000      1.404900000000000     -0.866200000000000
H       2.221600000000000      2.509000000000000     -1.637900000000000
H       0.631700000000000      1.710100000000000      1.762100000000000
H       1.511100000000000      2.984200000000000      2.595600000000000
H       0.785600000000000      4.419700000000000     -1.271500000000000
H      -0.069200000000000      3.122900000000000     -2.108700000000000
H      -0.806400000000000      3.612500000000000      2.131200000000000
H       0.325900000000000      4.726200000000000      1.360700000000000
H       2.713400000000000      0.690600000000000      0.872300000000000
H       3.600800000000000      1.851700000000000      1.849900000000000
H       4.003800000000000      1.474300000000000     -1.183400000000000
H      -1.343200000000000      5.459800000000000     -0.419400000000000
H      -4.434900000000000     -1.480300000000000      1.216600000000000
H      -1.155800000000000     -0.655300000000000     -0.924100000000000
H      -3.640100000000000     -1.172100000000000     -1.726700000000000
H      -4.419900000000000     -2.583100000000000     -1.009900000000000
H      -3.621700000000000      0.804500000000000      1.556000000000000
H      -3.120800000000000      0.916600000000000     -0.129000000000000
H      -2.518500000000000     -3.071700000000000      0.390900000000000
H      -2.015400000000000     -2.949400000000000     -1.286400000000000
H      -1.182900000000000      0.403300000000000      1.286400000000000
H      -2.017600000000000     -0.965500000000000      1.997000000000000
H       5.820200000000000      0.761300000000000      1.167300000000000
H       2.480200000000000     -2.315000000000000      0.822900000000000
H      -5.975100000000000      0.398200000000000      0.749000000000000
H      -5.437900000000000      0.463600000000000     -0.922700000000000
H       4.010600000000000     -0.904400000000000      1.068300000000000
H       5.501700000000000     -1.583000000000000      0.464400000000000
H       0.503100000000000     -2.887300000000000     -1.428300000000000
H       1.169800000000000     -1.271100000000000     -1.159500000000000
H       4.245200000000000     -3.345300000000000     -0.829400000000000
H       3.128000000000000     -2.883000000000000     -2.104200000000000
H       3.312900000000000     -0.523100000000000     -1.390000000000000
H       4.846900000000000     -1.223300000000000     -1.885800000000000
H       5.347300000000000      3.386200000000000      0.756000000000000
H       5.923300000000000      3.028100000000000     -0.877500000000000
H       4.366700000000000      3.804400000000000     -0.664800000000000
H      -2.435100000000000      4.942500000000000      1.680500000000000
H      -3.206000000000000      3.491400000000000      0.998300000000000
H      -3.690000000000000      5.107100000000000      0.471300000000000
H      -1.779100000000000      4.349400000000000     -2.535500000000000
H      -3.325600000000000      4.798300000000000     -1.847200000000000
H      -2.791200000000000      3.116100000000000     -1.750400000000000
H       1.010700000000000     -4.447700000000000      0.649700000000000
H      -6.350400000000000     -1.828900000000000     -1.337600000000000
H       7.064700000000000     -0.150400000000000     -0.498400000000000
H       1.836500000000000     -6.302200000000000     -0.640400000000000
H       1.497300000000000     -4.980700000000000     -1.758900000000000
H       3.170400000000000     -5.363500000000000     -1.308300000000000
H       2.829900000000000     -4.176400000000000      2.275100000000000
H       2.740000000000000     -5.834700000000000      1.668900000000000
H       4.010800000000000     -4.748800000000000      1.084200000000000
H      -7.289200000000000     -1.666600000000000      1.578400000000000
H      -6.169500000000000     -2.864700000000000      0.901100000000000
H      -7.854100000000000     -2.855800000000000      0.394700000000000
H      -8.368200000000000      0.088100000000000     -0.105400000000000
H      -8.715800000000000     -1.226200000000000     -1.242100000000000
H      -7.738400000000000      0.152900000000000     -1.761300000000000
