94

O      -1.503500000000000      4.428000000000000      1.127200000000000
O      -2.654200000000000     -1.368800000000000     -2.387900000000000
C       2.861700000000000      0.882200000000000      0.391400000000000
C       4.353400000000000      0.973700000000000      0.075900000000000
C       2.578100000000000      1.374700000000000      1.816300000000000
C       2.042000000000000      1.677200000000000     -0.632900000000000
C       0.266000000000000      2.136200000000000      1.114400000000000
C       5.170500000000000      0.145900000000000      1.076100000000000
C       4.631200000000000      0.519400000000000     -1.362600000000000
C       1.085300000000000      1.341100000000000      2.138800000000000
C       0.549300000000000      1.643200000000000     -0.310100000000000
C       6.940300000000000     -0.274700000000000     -0.687400000000000
C       6.662800000000000      0.179800000000000      0.751200000000000
C       6.123600000000000      0.553500000000000     -1.687300000000000
C      -1.225900000000000      2.046100000000000      1.429800000000000
C       8.432000000000000     -0.184600000000000     -1.003400000000000
C      -2.033000000000000      3.155500000000000      0.745800000000000
C      -2.295200000000000     -2.473000000000000     -0.308000000000000
C      -4.945200000000000      0.298200000000000     -1.255800000000000
C      -2.816300000000000     -1.205600000000000     -0.982600000000000
C      -3.522800000000000      3.138600000000000      1.113600000000000
C      -4.295000000000000     -0.971400000000000     -0.638500000000000
C      -0.836500000000000     -2.736400000000000     -0.702700000000000
C      -2.437300000000000     -2.373000000000000      1.216100000000000
C      -0.418700000000000     -3.872900000000000      1.523000000000000
C      -4.235400000000000      1.602400000000000     -0.804700000000000
C      -4.305800000000000      1.887600000000000      0.699900000000000
C      -0.276200000000000     -3.972400000000000     -0.001200000000000
C      -1.877300000000000     -3.609200000000000      1.917500000000000
C      -6.490500000000000      0.319000000000000     -1.000500000000000
C       8.729100000000001     -0.667600000000000     -2.409700000000000
C       0.101200000000000     -5.141100000000000      2.197200000000000
C      -7.181100000000000      1.514100000000000     -1.670800000000000
C      -7.176800000000000     -0.965900000000000     -1.487900000000000
H       2.548400000000000     -0.170000000000000      0.328900000000000
H       4.672100000000000      2.022300000000000      0.164800000000000
H       2.956300000000000      2.396400000000000      1.947100000000000
H       3.072800000000000      0.746400000000000      2.563000000000000
H       2.147600000000000      1.262200000000000     -1.639700000000000
H       2.384500000000000      2.719000000000000     -0.668700000000000
H       0.597400000000000      3.180200000000000      1.187000000000000
H       4.822500000000000     -0.894700000000000      1.081000000000000
H       5.064100000000000      0.529600000000000      2.095000000000000
H       4.143200000000000      1.173900000000000     -2.091000000000000
H       4.245500000000000     -0.495500000000000     -1.522000000000000
H       0.742500000000000      0.298400000000000      2.160800000000000
H       0.926800000000000      1.749100000000000      3.144400000000000
H       0.022000000000000      2.260000000000000     -1.045700000000000
H       0.179100000000000      0.617800000000000     -0.432200000000000
H       6.628700000000000     -1.324800000000000     -0.776000000000000
H       7.200400000000000     -0.465100000000000      1.456700000000000
H       7.041800000000000      1.199000000000000      0.900800000000000
H       6.472300000000000      1.594200000000000     -1.687300000000000
H       6.245900000000000      0.172800000000000     -2.706700000000000
H      -1.358500000000000      2.155300000000000      2.514500000000000
H      -1.611600000000000      1.057800000000000      1.161000000000000
H       8.795299999999999      0.843300000000000     -0.886000000000000
H       8.991000000000000     -0.803500000000000     -0.291100000000000
H      -1.919000000000000      3.092300000000000     -0.339500000000000
H      -2.885600000000000     -3.330400000000000     -0.661700000000000
H      -4.813300000000000      0.235800000000000     -2.344900000000000
H      -2.203700000000000     -0.354500000000000     -0.671300000000000
H      -3.628200000000000      3.282000000000000      2.197100000000000
H      -4.005500000000000      4.017000000000000      0.664300000000000
H      -4.829600000000000     -1.852400000000000     -1.009100000000000
H      -4.464200000000000     -0.929700000000000      0.438900000000000
H      -0.216300000000000     -1.867900000000000     -0.447300000000000
H      -0.747600000000000     -2.882700000000000     -1.785400000000000
H      -1.921300000000000     -1.478700000000000      1.587200000000000
H      -3.484100000000000     -2.295500000000000      1.521500000000000
H       0.192000000000000     -3.029700000000000      1.872900000000000
H      -4.646400000000000      2.458100000000000     -1.352400000000000
H      -3.191600000000000      1.540400000000000     -1.126200000000000
H      -0.799600000000000     -4.864400000000000     -0.368700000000000
H       0.780300000000000     -4.091500000000000     -0.269900000000000
H      -1.950900000000000     -3.472800000000000      3.003200000000000
H      -2.496100000000000     -4.479700000000000      1.664500000000000
H      -5.349800000000000      2.027700000000000      1.001400000000000
H      -3.928400000000000      1.034500000000000      1.271600000000000
H      -6.673700000000000      0.390100000000000      0.078800000000000
H       9.811299999999999     -0.773200000000000     -2.542100000000000
H       8.386699999999999      0.041500000000000     -3.169000000000000
H       8.274100000000001     -1.643700000000000     -2.606000000000000
H      -1.992400000000000      5.109800000000000      0.635400000000000
H      -0.471200000000000     -6.021600000000000      1.886200000000000
H       0.030000000000000     -5.058400000000000      3.286800000000000
H       1.152200000000000     -5.313100000000000      1.942300000000000
H      -6.971900000000000      1.539600000000000     -2.745500000000000
H      -8.267600000000000      1.464400000000000     -1.538900000000000
H      -6.855100000000000      2.462200000000000     -1.233400000000000
H      -6.898700000000000     -1.198300000000000     -2.521300000000000
H      -8.267500000000000     -0.866400000000000     -1.448600000000000
H      -6.926700000000000     -1.822600000000000     -0.855400000000000
H      -2.803800000000000     -0.503800000000000     -2.805000000000000
