95

N      -8.823300000000000      0.135200000000000     -0.180800000000000
N       8.824600000000000      0.144300000000000     -0.166700000000000
C      -9.811600000000000      1.239700000000000     -0.259800000000000
C      -9.336600000000001     -1.258200000000000     -0.106900000000000
C       9.827999999999999      1.236200000000000     -0.228800000000000
C       9.317900000000000     -1.257700000000000     -0.133800000000000
C     -11.093100000000000      0.795100000000000     -1.003300000000000
C     -10.809900000000001     -1.330100000000000      0.356200000000000
C      11.094400000000000      0.792100000000000     -0.998200000000000
C      10.795199999999999     -1.363000000000000      0.309600000000000
C     -11.767200000000001     -0.432700000000000     -0.412400000000000
C      11.757099999999999     -0.459900000000000     -0.446600000000000
C      -7.630300000000000      0.425000000000000      0.608500000000000
C       7.643100000000000      0.431000000000000      0.640300000000000
C      -9.212400000000001      2.393000000000000     -1.105900000000000
C     -10.184400000000000      1.820200000000000      1.123300000000000
C      -8.545400000000001     -2.200800000000000      0.840700000000000
C      -9.194599999999999     -1.859500000000000     -1.524600000000000
C      10.224500000000001      1.774900000000000      1.164600000000000
C       9.236800000000001      2.419700000000000     -1.037900000000000
C       9.150200000000000     -1.821000000000000     -1.564100000000000
C       8.524300000000000     -2.212100000000000      0.799800000000000
C      -6.376400000000000     -0.030400000000000     -0.137700000000000
C       6.378800000000000      0.016600000000000     -0.111800000000000
C      -5.112500000000000      0.285200000000000      0.666500000000000
C       5.090500000000000      0.296200000000000      0.668900000000000
C      -3.816900000000000     -0.117100000000000     -0.046400000000000
C       3.823200000000000     -0.141600000000000     -0.070800000000000
C      -2.554900000000000      0.220600000000000      0.752100000000000
C       2.566700000000000      0.228400000000000      0.722500000000000
C      -1.259000000000000     -0.180300000000000      0.039100000000000
C       1.265900000000000     -0.211900000000000      0.044400000000000
C       0.007200000000000      0.222700000000000      0.800200000000000
H     -10.852100000000000      0.588200000000000     -2.054600000000000
H     -11.823499999999999      1.614500000000000     -1.040100000000000
H     -11.182000000000000     -2.361900000000000      0.298000000000000
H     -10.865300000000000     -1.069000000000000      1.421000000000000
H      11.836300000000000      1.601600000000000     -1.022600000000000
H      10.838500000000000      0.615600000000000     -2.051400000000000
H      10.866899999999999     -1.130600000000000      1.380000000000000
H      11.151199999999999     -2.398300000000000      0.220400000000000
H     -12.580299999999999     -0.126500000000000      0.257300000000000
H     -12.243700000000000     -0.999900000000000     -1.221500000000000
H      12.216300000000000     -1.012800000000000     -1.275300000000000
H      12.581799999999999     -0.182800000000000      0.221500000000000
H      -7.502000000000000      1.502500000000000      0.758000000000000
H      -7.680300000000000      0.026700000000000      1.626600000000000
H       7.529800000000000      1.505100000000000      0.822300000000000
H       7.690800000000000      0.001400000000000      1.645400000000000
H      -8.354400000000000      2.873100000000000     -0.625000000000000
H      -9.957400000000000      3.179100000000000     -1.279000000000000
H      -8.882800000000000      2.032500000000000     -2.087800000000000
H      -9.342900000000000      2.330300000000000      1.603700000000000
H     -10.537900000000000      1.054000000000000      1.817900000000000
H     -10.985500000000000      2.563000000000000      1.027300000000000
H      -7.510500000000000     -2.377500000000000      0.550800000000000
H      -9.010999999999999     -3.196000000000000      0.846900000000000
H      -8.572699999999999     -1.856800000000000      1.880300000000000
H      -8.146200000000000     -1.892000000000000     -1.842800000000000
H      -9.744000000000000     -1.295900000000000     -2.283500000000000
H      -9.574500000000000     -2.887800000000000     -1.553200000000000
H      10.575200000000001      0.985900000000000      1.834800000000000
H      11.034700000000001      2.508900000000000      1.078800000000000
H       9.395500000000000      2.283300000000000      1.667900000000000
H       9.991400000000001      3.199300000000000     -1.198800000000000
H       8.891200000000000      2.089800000000000     -2.025000000000000
H       8.391200000000000      2.899300000000000     -0.534900000000000
H       9.698600000000001     -1.246000000000000     -2.315200000000000
H       8.098100000000001     -1.831500000000000     -1.870800000000000
H       9.515499999999999     -2.853300000000000     -1.623100000000000
H       7.481800000000000     -2.362500000000000      0.521700000000000
H       8.572699999999999     -1.896000000000000      1.847500000000000
H       8.972200000000001     -3.214900000000000      0.772700000000000
H      -6.375200000000000     -1.089900000000000     -0.393800000000000
H      -6.320400000000000      0.506000000000000     -1.094900000000000
H       6.332900000000000      0.582700000000000     -1.052800000000000
H       6.378600000000000     -1.032700000000000     -0.408400000000000
H      -5.162300000000000     -0.231900000000000      1.632800000000000
H      -5.079000000000000      1.360300000000000      0.883300000000000
H       5.138300000000000     -0.221500000000000      1.635000000000000
H       5.031600000000000      1.369900000000000      0.886300000000000
H      -3.837600000000000     -1.195000000000000     -0.248400000000000
H      -3.771800000000000      0.386900000000000     -1.019700000000000
H       3.787500000000000      0.337500000000000     -1.056500000000000
H       3.850200000000000     -1.225000000000000     -0.236900000000000
H      -2.597900000000000     -0.280000000000000      1.727200000000000
H      -2.536000000000000      1.299400000000000      0.950500000000000
H       2.618800000000000     -0.225200000000000      1.720100000000000
H       2.543100000000000      1.315300000000000      0.870100000000000
H      -1.241900000000000      0.282300000000000     -0.955600000000000
H      -1.259500000000000     -1.266200000000000     -0.117100000000000
H       1.267700000000000     -1.303700000000000     -0.062800000000000
H       1.237600000000000      0.205400000000000     -0.970000000000000
H       0.018300000000000      1.310200000000000      0.940300000000000
H       0.001100000000000     -0.233100000000000      1.797300000000000
