95

O       1.594900000000000      3.892600000000000      1.343500000000000
N       2.641100000000000      2.855900000000000     -0.450600000000000
C      -2.725500000000000      0.285400000000000     -0.197800000000000
C      -1.624800000000000      0.781600000000000     -1.143300000000000
C      -2.141500000000000      0.077700000000000      1.218500000000000
C      -3.919200000000000      1.261100000000000     -0.210700000000000
C      -0.835000000000000      1.956800000000000     -0.527800000000000
C      -0.683200000000000     -0.355300000000000     -1.585400000000000
C      -3.108900000000000     -0.496400000000000      2.268400000000000
C      -4.843800000000000      1.080900000000000     -1.427300000000000
C      -3.648300000000000     -1.895200000000000      1.939600000000000
C      -6.319100000000000      0.868600000000000     -1.045400000000000
C      -6.127200000000000     -1.228700000000000      1.414500000000000
C      -5.142300000000000     -2.081300000000000      2.252900000000000
C      -0.123700000000000      2.868400000000000     -1.536800000000000
C      -6.784600000000000     -0.595000000000000     -1.027900000000000
C      -6.036900000000000     -1.550700000000000     -0.090800000000000
C      -1.252700000000000     -1.201500000000000     -2.727800000000000
C       0.585000000000000      4.039300000000000     -0.853800000000000
C       3.432000000000000      0.909200000000000      0.830000000000000
C      -7.552500000000000     -1.454200000000000      1.936000000000000
C      -0.279900000000000     -2.293800000000000     -3.146300000000000
C       3.364500000000000     -0.091800000000000     -0.340200000000000
C       4.370400000000000      0.530200000000000      2.001200000000000
C       3.751500000000000      2.308800000000000      0.293000000000000
C       1.644100000000000      3.611800000000000      0.148800000000000
C       2.854000000000000     -1.484200000000000      0.039200000000000
C       5.891800000000000      0.661000000000000      1.814500000000000
C       3.133500000000000     -2.544600000000000     -1.035500000000000
C       6.565100000000000     -0.258500000000000      0.793600000000000
C       4.407000000000000     -3.370100000000000     -0.791200000000000
C       6.419300000000000     -1.749200000000000      1.111200000000000
C       5.721600000000000     -2.685400000000000     -1.192600000000000
C       6.773400000000000     -2.653600000000000     -0.073900000000000
H      -3.074200000000000     -0.682300000000000     -0.563100000000000
H      -2.106300000000000      1.167200000000000     -2.052500000000000
H      -1.791300000000000      1.030100000000000      1.632500000000000
H      -1.269300000000000     -0.584000000000000      1.179600000000000
H      -3.575200000000000      2.301300000000000     -0.193700000000000
H      -4.504500000000000      1.158900000000000      0.701500000000000
H      -0.089900000000000      1.555700000000000      0.170800000000000
H      -1.496000000000000      2.602900000000000      0.059800000000000
H      -0.428600000000000     -1.006700000000000     -0.743800000000000
H       0.266100000000000      0.067000000000000     -1.934700000000000
H      -3.916200000000000      0.213100000000000      2.466500000000000
H      -2.563100000000000     -0.563200000000000      3.219500000000000
H      -4.503700000000000      0.275700000000000     -2.088400000000000
H      -4.781800000000000      2.002200000000000     -2.021300000000000
H      -3.439800000000000     -2.188000000000000      0.908400000000000
H      -3.090900000000000     -2.618200000000000      2.550400000000000
H      -6.930900000000000      1.380200000000000     -1.800700000000000
H      -6.558400000000000      1.358600000000000     -0.095100000000000
H      -5.899100000000000     -0.174600000000000      1.581800000000000
H      -5.388300000000000     -3.142600000000000      2.117000000000000
H      -5.297500000000000     -1.865000000000000      3.318000000000000
H      -0.863200000000000      3.272700000000000     -2.238600000000000
H       0.586200000000000      2.287400000000000     -2.133800000000000
H      -7.856200000000000     -0.617200000000000     -0.798900000000000
H      -6.694000000000000     -0.991200000000000     -2.048000000000000
H      -6.429500000000000     -2.563000000000000     -0.256400000000000
H      -4.998700000000000     -1.590800000000000     -0.418900000000000
H      -1.466200000000000     -0.562600000000000     -3.592600000000000
H      -2.197800000000000     -1.664900000000000     -2.425400000000000
H      -0.145600000000000      4.666700000000000     -0.329800000000000
H       1.066600000000000      4.670700000000000     -1.609900000000000
H       2.421200000000000      0.939300000000000      1.263500000000000
H      -7.876400000000000     -2.487900000000000      1.774200000000000
H      -8.267400000000000     -0.790600000000000      1.440400000000000
H      -7.609900000000000     -1.247100000000000      3.010200000000000
H       4.328100000000000     -0.150800000000000     -0.838100000000000
H       2.681200000000000      0.295900000000000     -1.107400000000000
H       4.126800000000000     -0.467200000000000      2.377500000000000
H       4.111700000000000      1.200600000000000      2.834000000000000
H      -0.072700000000000     -2.973300000000000     -2.313600000000000
H      -0.701000000000000     -2.881800000000000     -3.967700000000000
H       0.668800000000000     -1.866200000000000     -3.486000000000000
H       4.617900000000000      2.291300000000000     -0.377100000000000
H       3.978600000000000      2.993900000000000      1.117700000000000
H       1.768400000000000     -1.408600000000000      0.178200000000000
H       3.247700000000000     -1.825100000000000      0.998400000000000
H       6.361500000000000      0.482600000000000      2.791000000000000
H       6.135200000000000      1.698900000000000      1.557800000000000
H       2.293000000000000     -3.250800000000000     -1.016200000000000
H       3.140000000000000     -2.103900000000000     -2.039100000000000
H       7.637400000000000     -0.021200000000000      0.781400000000000
H       6.217800000000000     -0.017000000000000     -0.210700000000000
H       2.620400000000000      2.696900000000000     -1.453100000000000
H       4.318500000000000     -4.281800000000000     -1.397600000000000
H       4.432200000000000     -3.716100000000000      0.248400000000000
H       5.417200000000000     -1.990600000000000      1.466300000000000
H       7.096000000000000     -1.985900000000000      1.942300000000000
H       5.555900000000000     -1.685800000000000     -1.598600000000000
H       6.154100000000000     -3.260800000000000     -2.022300000000000
H       6.922200000000000     -3.675800000000000      0.296100000000000
H       7.734100000000000     -2.335100000000000     -0.496700000000000
