95

O       4.474100000000000      1.495100000000000     -0.773600000000000
O       6.449100000000000      0.199200000000000     -2.043400000000000
C      -0.513800000000000     -0.251500000000000      1.319400000000000
C      -1.974500000000000     -0.008300000000000      0.923500000000000
C      -2.613300000000000     -1.219000000000000      0.208500000000000
C       0.309400000000000     -0.549100000000000      0.023700000000000
C       1.838400000000000     -0.759500000000000      0.334600000000000
C       2.341500000000000      0.516300000000000      1.082100000000000
C      -4.045700000000000     -0.663600000000000      0.015900000000000
C      -1.835400000000000     -1.459800000000000     -1.093000000000000
C      -0.334000000000000     -1.675500000000000     -0.827700000000000
C       0.067600000000000      0.944300000000000      2.087000000000000
C      -2.988400000000000      0.345200000000000      2.007200000000000
C       1.558900000000000      0.783400000000000      2.373500000000000
C      -4.351600000000000      0.033700000000000      1.362200000000000
C       2.653300000000000     -0.883400000000000     -0.983000000000000
C       3.858800000000000      0.501300000000000      1.340900000000000
C      -2.628300000000000     -2.517700000000000      1.053400000000000
C       4.659200000000000      0.330800000000000      0.039700000000000
C      -5.117200000000000     -1.666200000000000     -0.387900000000000
C       2.057300000000000     -2.047700000000000      1.169100000000000
C       4.172900000000000     -0.880100000000000     -0.768700000000000
C       6.154900000000000      0.208100000000000      0.337100000000000
C      -6.547700000000000     -1.168000000000000     -0.088200000000000
C      -4.991500000000000     -1.990400000000000     -1.881700000000000
C       7.077100000000000      0.631700000000000     -0.826500000000000
C      -6.881200000000000      0.163800000000000     -0.768100000000000
C       7.257500000000000      2.165100000000000     -0.941600000000000
C       8.456400000000000     -0.067100000000000     -0.724300000000000
C      -8.278499999999999      0.695100000000000     -0.421200000000000
C      -8.703500000000000      1.997300000000000     -1.126000000000000
C       7.862600000000000      2.849300000000000      0.275700000000000
C       8.409599999999999     -1.591500000000000     -0.765000000000000
C      -7.725700000000000      3.120200000000000     -0.767200000000000
C     -10.128399999999999      2.418600000000000     -0.766200000000000
H      -0.469000000000000     -1.113500000000000      1.991900000000000
H      -1.970500000000000      0.845000000000000      0.224300000000000
H       0.243100000000000      0.357200000000000     -0.599600000000000
H       2.148700000000000      1.378200000000000      0.424700000000000
H      -4.000200000000000      0.132200000000000     -0.743000000000000
H      -1.954800000000000     -0.606000000000000     -1.772000000000000
H      -2.203700000000000     -2.340700000000000     -1.624100000000000
H      -0.194400000000000     -2.646600000000000     -0.342600000000000
H       0.167600000000000     -1.740900000000000     -1.799600000000000
H      -0.462200000000000      1.075400000000000      3.037700000000000
H      -0.088100000000000      1.865500000000000      1.510800000000000
H      -2.919700000000000      1.397000000000000      2.303200000000000
H      -2.841900000000000     -0.262900000000000      2.907100000000000
H       1.925400000000000      1.702500000000000      2.847000000000000
H       1.716900000000000     -0.022300000000000      3.099300000000000
H      -4.911100000000000     -0.606400000000000      2.052700000000000
H      -4.917700000000000      0.959900000000000      1.230000000000000
H       2.389300000000000     -1.808300000000000     -1.509700000000000
H       2.389200000000000     -0.058000000000000     -1.657100000000000
H       4.135800000000000      1.455800000000000      1.808500000000000
H       4.117700000000000     -0.286900000000000      2.057200000000000
H      -3.261300000000000     -2.434100000000000      1.942300000000000
H      -1.632800000000000     -2.804900000000000      1.402100000000000
H      -2.997300000000000     -3.364700000000000      0.464000000000000
H      -5.019500000000000     -2.603000000000000      0.169800000000000
H       1.801700000000000     -2.942200000000000      0.591400000000000
H       1.456100000000000     -2.067900000000000      2.081200000000000
H       3.097600000000000     -2.170600000000000      1.482800000000000
H       4.462700000000000     -1.808600000000000     -0.262100000000000
H       4.603400000000000     -0.940200000000000     -1.769900000000000
H       6.339900000000000     -0.826700000000000      0.642000000000000
H       6.414100000000000      0.793200000000000      1.226500000000000
H      -7.267200000000000     -1.925400000000000     -0.427000000000000
H      -6.712300000000000     -1.083100000000000      0.991300000000000
H      -4.179700000000000     -2.696200000000000     -2.065600000000000
H      -5.899500000000000     -2.478700000000000     -2.253900000000000
H      -4.819600000000000     -1.098700000000000     -2.493100000000000
H       4.666500000000000      1.266700000000000     -1.698600000000000
H      -6.829200000000000      0.039900000000000     -1.856300000000000
H      -6.144200000000000      0.924200000000000     -0.510100000000000
H       6.334000000000000      2.682100000000000     -1.211800000000000
H       7.917200000000000      2.364800000000000     -1.798300000000000
H       8.972700000000000      0.232000000000000      0.194300000000000
H       9.081099999999999      0.258000000000000     -1.566400000000000
H      -8.339700000000001      0.837500000000000      0.665900000000000
H      -9.012600000000001     -0.083300000000000     -0.667500000000000
H       7.036700000000000      0.429700000000000     -2.783200000000000
H      -8.662300000000000      1.837800000000000     -2.210800000000000
H       7.194500000000000      2.807400000000000      1.139900000000000
H       8.827999999999999      2.419900000000000      0.554600000000000
H       8.032100000000000      3.908600000000000      0.053300000000000
H       7.827800000000000     -1.956800000000000     -1.616400000000000
H       7.994500000000000     -2.017000000000000      0.152100000000000
H       9.426500000000001     -1.986600000000000     -0.864900000000000
H      -7.635400000000000      3.241600000000000      0.317600000000000
H      -8.065600000000000      4.075000000000000     -1.183900000000000
H      -6.729200000000000      2.934200000000000     -1.178700000000000
H     -10.225500000000000      2.611600000000000      0.307500000000000
H     -10.414899999999999      3.328900000000000     -1.303300000000000
H     -10.842000000000001      1.632600000000000     -1.034500000000000
