95

N       0.585000000000000      2.062300000000000     -0.839900000000000
N       5.903300000000000     -2.713500000000000      1.012200000000000
C       2.375000000000000      2.990600000000000      0.685900000000000
C       3.945000000000000     -0.618900000000000      0.380900000000000
C       2.797600000000000      1.532900000000000      1.028800000000000
C       3.637500000000000      0.817000000000000     -0.034700000000000
C       1.596700000000000      3.102400000000000     -0.652900000000000
C       4.708300000000000     -0.656400000000000      1.710900000000000
C       4.748600000000000     -1.346800000000000     -0.704100000000000
C       3.621100000000000      3.895400000000000      0.592300000000000
C       1.498600000000000      3.516700000000000      1.844600000000000
C       0.333800000000000      1.836900000000000     -2.269600000000000
C       5.115400000000000     -2.084300000000000      2.074400000000000
C       5.153300000000000     -2.747600000000000     -0.245300000000000
C      -0.621900000000000      2.315400000000000     -0.031400000000000
C      -0.473100000000000      0.564700000000000     -2.572600000000000
C       0.160700000000000     -0.752400000000000     -2.061600000000000
C      -1.492200000000000      3.508300000000000     -0.462600000000000
C      -0.856200000000000     -1.896700000000000     -2.257100000000000
C      -2.579100000000000      3.870000000000000      0.557900000000000
C      -0.431500000000000     -3.280300000000000     -1.749600000000000
C       1.485800000000000     -1.049000000000000     -2.769400000000000
C      -3.961700000000000      3.272300000000000      0.282000000000000
C       0.002400000000000     -3.362700000000000     -0.282100000000000
C      -4.061700000000000      1.766300000000000      0.527000000000000
C      -0.967900000000000     -2.771500000000000      0.743800000000000
C      -5.524400000000000      1.305700000000000      0.481100000000000
C      -2.378400000000000     -3.359200000000000      0.675900000000000
C      -5.716000000000000     -0.156700000000000      0.893400000000000
C      -3.278000000000000     -2.728700000000000      1.741500000000000
C      -5.161400000000000     -1.148400000000000     -0.130100000000000
C      -4.760800000000000     -3.071300000000000      1.573300000000000
C      -5.403600000000000     -2.612400000000000      0.256900000000000
H       2.994900000000000     -1.155100000000000      0.513200000000000
H       3.355900000000000      1.583700000000000      1.970700000000000
H       1.905900000000000      0.927100000000000      1.237100000000000
H       4.576300000000000      1.359900000000000     -0.193900000000000
H       3.113400000000000      0.811300000000000     -0.991600000000000
H       1.198100000000000      4.113800000000000     -0.792500000000000
H       2.349000000000000      3.000800000000000     -1.447900000000000
H       4.093000000000000     -0.278600000000000      2.533400000000000
H       5.603000000000000     -0.023100000000000      1.653200000000000
H       5.652300000000000     -0.772000000000000     -0.946300000000000
H       4.167300000000000     -1.420100000000000     -1.628200000000000
H       4.258500000000000      3.627200000000000     -0.256500000000000
H       4.232300000000000      3.828300000000000      1.499400000000000
H       3.332400000000000      4.945100000000000      0.463200000000000
H       0.931200000000000      2.731600000000000      2.351300000000000
H       2.132600000000000      3.940700000000000      2.634500000000000
H       0.825700000000000      4.321000000000000      1.529700000000000
H       1.285000000000000      1.753100000000000     -2.808300000000000
H      -0.173400000000000      2.699900000000000     -2.717800000000000
H       5.715400000000000     -2.062800000000000      2.990900000000000
H       4.225500000000000     -2.688700000000000      2.289800000000000
H       4.264300000000000     -3.381200000000000     -0.136600000000000
H       5.780700000000000     -3.208300000000000     -1.016100000000000
H      -0.412700000000000      2.358400000000000      1.030300000000000
H      -1.240900000000000      1.413100000000000     -0.091300000000000
H      -0.603000000000000      0.497300000000000     -3.661100000000000
H      -1.484800000000000      0.671400000000000     -2.162700000000000
H       0.365500000000000     -0.644700000000000     -0.990900000000000
H       6.140000000000000     -3.666000000000000      1.288400000000000
H      -1.946500000000000      3.325700000000000     -1.442700000000000
H      -0.862500000000000      4.397300000000000     -0.571500000000000
H      -1.092400000000000     -1.988500000000000     -3.325700000000000
H      -1.798000000000000     -1.618100000000000     -1.768900000000000
H      -2.257500000000000      3.632600000000000      1.578700000000000
H      -2.701200000000000      4.961200000000000      0.527900000000000
H       0.386800000000000     -3.660100000000000     -2.373300000000000
H      -1.264800000000000     -3.974700000000000     -1.914700000000000
H       2.197900000000000     -0.228200000000000     -2.678200000000000
H       1.963000000000000     -1.939900000000000     -2.351300000000000
H       1.324600000000000     -1.227300000000000     -3.838200000000000
H      -4.268900000000000      3.501600000000000     -0.745700000000000
H      -4.675800000000000      3.784800000000000      0.939500000000000
H       0.973200000000000     -2.866300000000000     -0.164500000000000
H       0.174300000000000     -4.418400000000000     -0.036500000000000
H      -3.630700000000000      1.521900000000000      1.504900000000000
H      -3.484100000000000      1.232600000000000     -0.233700000000000
H      -1.020000000000000     -1.684100000000000      0.615400000000000
H      -0.554200000000000     -2.941300000000000      1.745800000000000
H      -6.114500000000000      1.925800000000000      1.167600000000000
H      -5.935000000000000      1.468700000000000     -0.522700000000000
H      -2.341300000000000     -4.445200000000000      0.820900000000000
H      -2.796900000000000     -3.182200000000000     -0.317700000000000
H      -6.790300000000000     -0.342200000000000      1.016600000000000
H      -5.255100000000000     -0.313800000000000      1.874700000000000
H      -3.150900000000000     -1.640100000000000      1.745600000000000
H      -2.950100000000000     -3.074300000000000      2.730100000000000
H      -4.091400000000000     -0.980500000000000     -0.288000000000000
H      -5.644800000000000     -0.967100000000000     -1.098300000000000
H      -5.313600000000000     -2.630600000000000      2.411900000000000
H      -4.891600000000000     -4.156900000000000      1.663500000000000
H      -6.484300000000000     -2.792100000000000      0.320100000000000
H      -5.044600000000000     -3.249700000000000     -0.560100000000000
