95

O      -0.735100000000000      3.794600000000000      0.028100000000000
O      -0.109100000000000      2.478100000000000      1.780500000000000
C       1.141500000000000      1.023800000000000     -0.470500000000000
C       2.511600000000000     -1.670500000000000     -0.142000000000000
C       1.245800000000000      2.542100000000000     -0.231900000000000
C       1.215400000000000      0.296600000000000      0.889600000000000
C       2.310500000000000      0.577100000000000     -1.375300000000000
C       1.342400000000000     -1.224000000000000      0.762500000000000
C       2.437600000000000     -0.943400000000000     -1.502200000000000
C       3.862800000000000     -1.392600000000000      0.545900000000000
C      -0.209900000000000      0.746000000000000     -1.158200000000000
C       2.407200000000000     -3.188900000000000     -0.380600000000000
C       2.569100000000000      2.870200000000000      0.483900000000000
C       1.139300000000000      3.291400000000000     -1.572900000000000
C       3.924700000000000     -2.080100000000000      1.916600000000000
C       5.027800000000000     -1.844300000000000     -0.345100000000000
C       2.827400000000000      4.373000000000000      0.599700000000000
C       1.409200000000000      4.790900000000000     -1.441200000000000
C       0.081200000000000      2.911800000000000      0.654000000000000
C      -1.349500000000000      0.667700000000000     -0.142600000000000
C       2.742100000000000      5.066100000000000     -0.755000000000000
C       1.110100000000000     -3.534300000000000     -1.095500000000000
C       5.275300000000000     -1.863300000000000      2.595400000000000
C       6.376400000000000     -1.628100000000000      0.337600000000000
C       6.431000000000000     -2.305500000000000      1.703300000000000
C      -2.683700000000000      0.358400000000000     -0.825800000000000
C       1.023600000000000     -5.038000000000000     -1.355600000000000
C      -3.816100000000000      0.242900000000000      0.196900000000000
C      -0.250900000000000     -5.402200000000000     -2.100200000000000
C      -5.162800000000000     -0.137200000000000     -0.425600000000000
C      -6.301400000000000     -0.228100000000000      0.594100000000000
C      -7.622400000000000     -0.598500000000000     -0.086000000000000
C      -8.806200000000000     -0.674600000000000      0.882600000000000
C     -10.110200000000001     -1.115600000000000      0.217200000000000
C     -11.254799999999999     -1.161700000000000      1.218000000000000
H       0.395900000000000      0.453200000000000      1.586600000000000
H       2.101500000000000      0.600800000000000      1.451300000000000
H       3.288500000000000      0.930300000000000     -1.054400000000000
H       2.175100000000000      0.948900000000000     -2.397200000000000
H       1.365600000000000     -1.686800000000000      1.752800000000000
H       0.392700000000000     -1.558700000000000      0.345000000000000
H       1.563800000000000     -1.249400000000000     -2.076300000000000
H       3.271700000000000     -1.193000000000000     -2.163900000000000
H       3.985200000000000     -0.315800000000000      0.716200000000000
H      -0.180600000000000     -0.239300000000000     -1.637700000000000
H      -0.466700000000000      1.409700000000000     -1.983000000000000
H       3.214000000000000     -3.570300000000000     -1.010500000000000
H       2.417400000000000     -3.758800000000000      0.552300000000000
H       3.451200000000000      2.467200000000000     -0.013200000000000
H       2.586100000000000      2.500300000000000      1.514000000000000
H       0.171500000000000      3.205500000000000     -2.073900000000000
H       1.883100000000000      2.928200000000000     -2.288500000000000
H       3.172500000000000     -1.684900000000000      2.604200000000000
H       3.779900000000000     -3.161300000000000      1.852800000000000
H       5.064500000000000     -1.285100000000000     -1.283500000000000
H       4.985600000000000     -2.906900000000000     -0.594200000000000
H       2.099500000000000      4.823200000000000      1.286000000000000
H       3.817800000000000      4.544000000000000      1.037700000000000
H       0.618200000000000      5.328600000000000     -0.911900000000000
H       1.436300000000000      5.231500000000000     -2.445900000000000
H      -1.211800000000000     -0.142400000000000      0.576200000000000
H      -1.585100000000000      1.565400000000000      0.404600000000000
H       2.876500000000000      6.146200000000000     -0.627500000000000
H       3.562000000000000      4.717400000000000     -1.395100000000000
H       1.026800000000000     -3.061100000000000     -2.075000000000000
H       0.224100000000000     -3.270000000000000     -0.514700000000000
H       5.307800000000000     -2.416400000000000      3.541200000000000
H       5.392600000000000     -0.801100000000000      2.843700000000000
H       6.556700000000000     -0.552500000000000      0.457000000000000
H       7.180400000000000     -2.016300000000000     -0.298200000000000
H       7.383900000000000     -2.073600000000000      2.192300000000000
H       6.395400000000000     -3.394100000000000      1.572600000000000
H      -2.602300000000000     -0.581700000000000     -1.385000000000000
H      -2.923700000000000      1.146500000000000     -1.549900000000000
H       1.886600000000000     -5.367900000000000     -1.946000000000000
H       1.052400000000000     -5.584500000000000     -0.405500000000000
H      -1.498200000000000      4.050200000000000      0.588800000000000
H      -3.924500000000000      1.197100000000000      0.727400000000000
H      -3.551800000000000     -0.509500000000000      0.950500000000000
H      -0.295000000000000     -4.902200000000000     -3.073000000000000
H      -1.137500000000000     -5.115600000000000     -1.525600000000000
H      -0.293200000000000     -6.482300000000000     -2.272300000000000
H      -5.422500000000000      0.604200000000000     -1.191500000000000
H      -5.059800000000000     -1.100700000000000     -0.940100000000000
H      -6.410700000000000      0.733900000000000      1.108800000000000
H      -6.055600000000000     -0.977700000000000      1.355500000000000
H      -7.507700000000000     -1.567500000000000     -0.587700000000000
H      -7.849100000000000      0.137400000000000     -0.867300000000000
H      -8.949100000000000      0.308300000000000      1.348700000000000
H      -8.561500000000001     -1.374700000000000      1.691200000000000
H     -10.365900000000000     -0.422800000000000     -0.592800000000000
H      -9.981299999999999     -2.107200000000000     -0.231400000000000
H     -11.041700000000001     -1.869200000000000      2.025600000000000
H     -11.428699999999999     -0.175900000000000      1.661100000000000
H     -12.177899999999999     -1.479200000000000      0.723100000000000
