95

N       1.920400000000000      0.420900000000000      0.318200000000000
N      -2.346600000000000      1.201600000000000      0.302000000000000
C       3.290600000000000      0.197600000000000     -0.161300000000000
C      -3.305500000000000      0.211100000000000     -0.205100000000000
C       4.221500000000000      1.311600000000000      0.393600000000000
C       3.821300000000000     -1.204300000000000      0.216600000000000
C      -4.761700000000000      0.554000000000000      0.184400000000000
C      -2.911300000000000     -1.201700000000000      0.309000000000000
C       5.140000000000000      1.852400000000000     -0.708500000000000
C       3.015100000000000     -2.344300000000000     -0.411100000000000
C      -5.247600000000000      1.880600000000000     -0.405000000000000
C      -2.985100000000000     -2.233000000000000     -0.823100000000000
C       5.077000000000000      0.857800000000000      1.593700000000000
C       3.933000000000000     -1.397400000000000      1.740700000000000
C      -4.982400000000000      0.527100000000000      1.708600000000000
C      -3.767800000000000     -1.685600000000000      1.496700000000000
C       4.345800000000000     -0.129300000000000      2.491300000000000
C      -4.168300000000000     -0.551000000000000      2.427600000000000
C       1.414900000000000      1.711600000000000     -0.133400000000000
C      -1.003200000000000      0.898800000000000     -0.163000000000000
C       6.040000000000000      0.721200000000000     -1.227800000000000
C       6.014000000000000      2.980400000000000     -0.140700000000000
C       4.288700000000000      2.398700000000000     -1.864200000000000
C       3.003700000000000     -2.182400000000000     -1.937700000000000
C       1.574700000000000     -2.304400000000000      0.118900000000000
C       3.659000000000000     -3.688700000000000     -0.043700000000000
C      -4.400600000000000      3.031100000000000      0.157500000000000
C      -5.109200000000000      1.842400000000000     -1.933400000000000
C      -6.720300000000000      2.097900000000000     -0.029500000000000
C      -2.547300000000000     -3.607100000000000     -0.294900000000000
C      -4.427400000000000     -2.321800000000000     -1.343600000000000
C      -2.054600000000000     -1.806000000000000     -1.968000000000000
C      -0.020600000000000      1.960200000000000      0.335000000000000
H       3.235300000000000      0.238800000000000     -1.244400000000000
H      -3.241700000000000      0.263700000000000     -1.287300000000000
H       3.669300000000000      2.163300000000000      0.793100000000000
H       4.843700000000000     -1.298900000000000     -0.165900000000000
H      -5.417600000000000     -0.224900000000000     -0.219900000000000
H      -1.897300000000000     -1.242600000000000      0.708200000000000
H       6.027200000000000      0.394600000000000      1.325300000000000
H       5.338200000000000      1.732800000000000      2.203500000000000
H       4.712500000000000     -2.148300000000000      1.929700000000000
H       3.040000000000000     -1.787300000000000      2.230900000000000
H      -6.042200000000000      0.302600000000000      1.892400000000000
H      -4.799100000000000      1.469500000000000      2.226300000000000
H      -3.192800000000000     -2.412800000000000      2.085200000000000
H      -4.687000000000000     -2.200100000000000      1.214300000000000
H       3.455300000000000      0.356700000000000      2.908400000000000
H       4.973600000000000     -0.396500000000000      3.349600000000000
H      -3.263800000000000     -0.102800000000000      2.856800000000000
H      -4.742400000000000     -0.942600000000000      3.275700000000000
H       1.887200000000000      0.381100000000000      1.335200000000000
H      -2.359600000000000      1.221000000000000      1.320100000000000
H       1.422100000000000      1.746300000000000     -1.229700000000000
H       1.971900000000000      2.577200000000000      0.225000000000000
H      -0.977200000000000      0.895900000000000     -1.259200000000000
H      -0.618900000000000     -0.054600000000000      0.187300000000000
H       5.482600000000000     -0.053500000000000     -1.760900000000000
H       6.685900000000000      0.250900000000000     -0.485700000000000
H       6.728100000000000      1.134200000000000     -1.978700000000000
H       6.744900000000000      2.622400000000000      0.591600000000000
H       6.590500000000000      3.463600000000000     -0.938900000000000
H       5.405000000000000      3.757800000000000      0.334300000000000
H       3.538600000000000      3.112600000000000     -1.509300000000000
H       4.926900000000000      2.949000000000000     -2.567900000000000
H       3.793100000000000      1.637100000000000     -2.470400000000000
H       4.016400000000000     -2.057000000000000     -2.336200000000000
H       2.579600000000000     -3.075600000000000     -2.413000000000000
H       2.390000000000000     -1.343500000000000     -2.280100000000000
H       0.947300000000000     -1.605900000000000     -0.437700000000000
H       1.445900000000000     -2.130200000000000      1.186700000000000
H       1.102400000000000     -3.279200000000000     -0.068400000000000
H       3.560800000000000     -3.924200000000000      1.021200000000000
H       3.180200000000000     -4.511700000000000     -0.587900000000000
H       4.723700000000000     -3.706600000000000     -0.302600000000000
H      -4.937400000000000      3.976100000000000     -0.009100000000000
H      -4.195600000000000      3.011700000000000      1.227600000000000
H      -3.460700000000000      3.174700000000000     -0.384600000000000
H      -5.577200000000000      0.947100000000000     -2.357100000000000
H      -4.070600000000000      1.885500000000000     -2.275500000000000
H      -5.608100000000000      2.709500000000000     -2.383700000000000
H      -6.858100000000000      2.281200000000000      1.041200000000000
H      -7.129800000000000      2.973000000000000     -0.548300000000000
H      -7.336700000000000      1.237200000000000     -0.312600000000000
H      -1.562700000000000     -3.556800000000000      0.183400000000000
H      -2.472300000000000     -4.332000000000000     -1.114500000000000
H      -3.256100000000000     -4.029700000000000      0.424500000000000
H      -4.475900000000000     -3.100800000000000     -2.117300000000000
H      -5.179500000000000     -2.610800000000000     -0.608800000000000
H      -4.752600000000000     -1.409200000000000     -1.850000000000000
H      -2.411300000000000     -0.956500000000000     -2.554900000000000
H      -1.953600000000000     -2.626300000000000     -2.690600000000000
H      -1.045300000000000     -1.588200000000000     -1.610400000000000
H      -0.339000000000000      2.948400000000000     -0.022200000000000
H      -0.040900000000000      2.000200000000000      1.432400000000000
