95

O       1.688500000000000      3.431100000000000     -0.076200000000000
O       2.978800000000000      3.344600000000000      1.800900000000000
C       1.211200000000000      0.748100000000000      0.445100000000000
C      -1.731800000000000      1.302000000000000     -0.081100000000000
C       2.632400000000000      1.341600000000000      0.474900000000000
C       0.324900000000000      1.519100000000000      1.447500000000000
C       0.640400000000000      0.886000000000000     -0.983000000000000
C      -1.161000000000000      1.164000000000000      1.347100000000000
C      -0.845600000000000      0.530700000000000     -1.083200000000000
C      -1.832100000000000      2.787300000000000     -0.481100000000000
C       1.311700000000000     -0.737200000000000      0.844900000000000
C      -3.153000000000000      0.708400000000000     -0.110800000000000
C       3.474100000000000      0.631800000000000      1.551400000000000
C       3.283600000000000      1.211400000000000     -0.914300000000000
C      -2.360500000000000      2.927800000000000     -1.915100000000000
C      -2.720400000000000      3.555900000000000      0.506400000000000
C       4.946600000000000      1.043500000000000      1.524200000000000
C       4.757800000000000      1.618000000000000     -0.922400000000000
C       2.474000000000000      2.800000000000000      0.830300000000000
C       2.152200000000000     -1.511100000000000     -0.159500000000000
C       5.555800000000000      0.868300000000000      0.138100000000000
C      -3.126400000000000     -0.771400000000000      0.239300000000000
C      -2.519200000000000      4.392600000000000     -2.316300000000000
C      -2.878600000000000      5.019600000000000      0.101000000000000
C      -3.395700000000000      5.155200000000000     -1.327700000000000
C       2.273200000000000     -2.979100000000000      0.256100000000000
C      -4.542900000000000     -1.351000000000000      0.236300000000000
C       3.084600000000000     -3.778600000000000     -0.765800000000000
C      -4.528900000000000     -2.848800000000000      0.549300000000000
C       3.177700000000000     -5.271300000000000     -0.436400000000000
C      -5.915200000000000     -3.496700000000000      0.489400000000000
C       3.925600000000000     -6.082200000000000     -1.495300000000000
C      -5.891600000000000     -5.006700000000000      0.729800000000000
C       4.001200000000000     -7.553400000000000     -1.116000000000000
C      -7.291400000000000     -5.599200000000000      0.672500000000000
H       0.654800000000000      1.294500000000000      2.471600000000000
H       0.316600000000000      2.605700000000000      1.389500000000000
H       0.711300000000000      1.905900000000000     -1.366600000000000
H       1.144500000000000      0.281900000000000     -1.740100000000000
H      -1.732900000000000      1.722600000000000      2.093300000000000
H      -1.221900000000000      0.133500000000000      1.701500000000000
H      -0.878400000000000     -0.544200000000000     -0.897300000000000
H      -1.188600000000000      0.622000000000000     -2.117400000000000
H      -0.843200000000000      3.255300000000000     -0.455700000000000
H       0.311300000000000     -1.187900000000000      0.827700000000000
H       1.619400000000000     -0.895800000000000      1.885100000000000
H      -3.624100000000000      0.789500000000000     -1.093100000000000
H      -3.815600000000000      1.187300000000000      0.615000000000000
H       3.535800000000000     -0.452700000000000      1.511300000000000
H       3.084700000000000      0.863600000000000      2.552600000000000
H       2.824200000000000      1.899700000000000     -1.636100000000000
H       3.235600000000000      0.242900000000000     -1.403000000000000
H      -3.339500000000000      2.463900000000000     -2.054900000000000
H      -1.677500000000000      2.485700000000000     -2.645000000000000
H      -3.732100000000000      3.147700000000000      0.569100000000000
H      -2.300800000000000      3.558300000000000      1.515700000000000
H       5.507500000000000      0.436400000000000      2.245400000000000
H       5.070800000000000      2.082500000000000      1.846500000000000
H       5.188900000000000      1.425700000000000     -1.911900000000000
H       4.846600000000000      2.697600000000000     -0.748300000000000
H       3.186100000000000     -1.195700000000000     -0.248500000000000
H       1.698500000000000     -1.513700000000000     -1.153600000000000
H       6.591300000000000      1.226800000000000      0.142500000000000
H       5.589400000000000     -0.198400000000000     -0.115600000000000
H      -2.714300000000000     -0.970500000000000      1.229800000000000
H      -2.561400000000000     -1.358400000000000     -0.487900000000000
H      -2.954500000000000      4.457000000000000     -3.320200000000000
H      -1.530800000000000      4.866200000000000     -2.367100000000000
H      -1.910700000000000      5.528800000000000      0.188100000000000
H      -3.566000000000000      5.523000000000000      0.790500000000000
H      -3.432200000000000      6.214000000000000     -1.607700000000000
H      -4.423100000000000      4.774500000000000     -1.381800000000000
H       2.751900000000000     -3.051800000000000      1.240200000000000
H       1.272800000000000     -3.418900000000000      0.349500000000000
H      -5.162400000000000     -0.829900000000000      0.976100000000000
H      -5.005900000000000     -1.190000000000000     -0.745000000000000
H       1.573500000000000      4.381800000000000      0.136000000000000
H       4.097700000000000     -3.362900000000000     -0.834200000000000
H       2.628400000000000     -3.664100000000000     -1.757100000000000
H      -3.870100000000000     -3.359900000000000     -0.164000000000000
H      -4.100200000000000     -3.009200000000000      1.546300000000000
H       3.675100000000000     -5.391700000000000      0.534000000000000
H       2.164300000000000     -5.676700000000000     -0.324400000000000
H      -6.564300000000000     -3.019000000000000      1.233800000000000
H      -6.361200000000000     -3.297300000000000     -0.493000000000000
H       4.941000000000000     -5.687300000000000     -1.615700000000000
H       3.421300000000000     -5.983400000000000     -2.463400000000000
H      -5.449000000000000     -5.219100000000000      1.709800000000000
H      -5.261500000000000     -5.492800000000000     -0.023900000000000
H       3.000000000000000     -7.985000000000000     -1.017600000000000
H       4.539300000000000     -8.115600000000001     -1.885500000000000
H       4.528600000000000     -7.687100000000000     -0.166100000000000
H      -7.937200000000000     -5.154700000000000      1.436400000000000
H      -7.252900000000000     -6.679000000000000      0.846600000000000
H      -7.749600000000000     -5.429200000000000     -0.307100000000000
