95

O       4.409900000000000      1.037200000000000     -0.200300000000000
O       5.085200000000000     -0.115200000000000     -2.047400000000000
C       2.278200000000000     -0.780600000000000     -0.238100000000000
C       0.379100000000000      1.569200000000000      0.103500000000000
C       3.750000000000000     -1.221700000000000     -0.349500000000000
C       1.959300000000000      0.196300000000000     -1.390600000000000
C       2.065700000000000     -0.082900000000000      1.123000000000000
C       0.591400000000000      0.871200000000000     -1.257500000000000
C       0.697900000000000      0.592200000000000      1.256000000000000
C       1.259000000000000      2.830700000000000      0.206200000000000
C       1.398400000000000     -2.042200000000000     -0.341100000000000
C      -1.092700000000000      2.010200000000000      0.214900000000000
C       4.320600000000000     -1.501300000000000      1.053200000000000
C       3.857200000000000     -2.465600000000000     -1.250500000000000
C       0.974400000000000      3.786400000000000     -0.960300000000000
C       1.043700000000000      3.533500000000000      1.553400000000000
C       5.722300000000000     -2.111500000000000      1.015600000000000
C       5.262300000000000     -3.068800000000000     -1.269800000000000
C       4.490400000000000     -0.067900000000000     -0.981000000000000
C       1.716100000000000     -3.015300000000000      0.784000000000000
C      -2.044900000000000      0.821500000000000      0.085600000000000
C       5.772200000000000     -3.356300000000000      0.137500000000000
C       1.796400000000000      5.068800000000000     -0.851800000000000
C       1.865400000000000      4.816400000000000      1.657700000000000
C       1.586300000000000      5.759900000000000      0.491800000000000
C      -3.506600000000000      1.268300000000000      0.163200000000000
C       0.821900000000000     -4.251800000000000      0.695000000000000
C      -4.458300000000000      0.081800000000000     -0.004800000000000
C       1.099700000000000     -5.223300000000000      1.831000000000000
C      -5.936600000000000      0.482000000000000     -0.007200000000000
C      -6.889800000000000     -0.707900000000000     -0.149700000000000
C      -8.350600000000000     -0.249200000000000     -0.133700000000000
C      -9.352499999999999     -1.402200000000000     -0.242800000000000
C     -10.808800000000000     -0.940000000000000     -0.300600000000000
C     -11.761799999999999     -2.122000000000000     -0.394800000000000
H       1.978000000000000     -0.344400000000000     -2.347000000000000
H       2.633300000000000      1.040700000000000     -1.527200000000000
H       2.791300000000000      0.712900000000000      1.303000000000000
H       2.161500000000000     -0.735600000000000      1.993100000000000
H       0.403600000000000      1.525800000000000     -2.113100000000000
H      -0.121900000000000      0.057100000000000     -1.398400000000000
H      -0.021800000000000     -0.228400000000000      1.287700000000000
H       0.602800000000000      1.053100000000000      2.243000000000000
H       2.318400000000000      2.560600000000000      0.148500000000000
H       0.343200000000000     -1.762500000000000     -0.231400000000000
H       1.417500000000000     -2.509600000000000     -1.332800000000000
H      -1.377700000000000      2.719000000000000     -0.566000000000000
H      -1.314500000000000      2.474500000000000      1.179500000000000
H       3.735100000000000     -2.137800000000000      1.710200000000000
H       4.457400000000000     -0.574900000000000      1.625800000000000
H       3.602900000000000     -2.199800000000000     -2.286500000000000
H       3.233500000000000     -3.326400000000000     -1.028100000000000
H       1.233400000000000      3.339700000000000     -1.923800000000000
H      -0.071600000000000      4.096800000000000     -1.010400000000000
H       1.346200000000000      2.904700000000000      2.394600000000000
H       0.003400000000000      3.825900000000000      1.715200000000000
H       6.439900000000000     -1.371900000000000      0.639300000000000
H       6.042000000000000     -2.366000000000000      2.033000000000000
H       5.966300000000000     -2.404000000000000     -1.781500000000000
H       5.251900000000000     -3.999900000000000     -1.849500000000000
H       1.511100000000000     -2.576400000000000      1.763800000000000
H       2.720500000000000     -3.426000000000000      0.800700000000000
H      -1.939200000000000      0.309600000000000     -0.872500000000000
H      -1.899000000000000      0.085900000000000      0.879600000000000
H       6.800900000000000     -3.730800000000000      0.087200000000000
H       5.166800000000000     -4.149900000000000      0.592200000000000
H       1.525300000000000      5.752900000000000     -1.664200000000000
H       2.860300000000000      4.831800000000000     -0.977100000000000
H       2.933200000000000      4.565100000000000      1.675600000000000
H       1.642200000000000      5.323700000000000      2.603200000000000
H       2.240400000000000      6.636200000000000      0.562000000000000
H       0.554100000000000      6.125200000000000      0.556900000000000
H      -3.708200000000000      2.008400000000000     -0.620800000000000
H      -3.696900000000000      1.756900000000000      1.126400000000000
H      -0.233100000000000     -3.955000000000000      0.729400000000000
H       0.984300000000000     -4.762500000000000     -0.261500000000000
H       4.886300000000000      1.799600000000000     -0.592600000000000
H      -4.282600000000000     -0.638900000000000      0.803600000000000
H      -4.232200000000000     -0.436600000000000     -0.945000000000000
H       0.917500000000000     -4.754500000000000      2.803300000000000
H       2.136900000000000     -5.572400000000000      1.806200000000000
H       0.446500000000000     -6.097800000000000      1.748900000000000
H      -6.162200000000000      1.015500000000000      0.924500000000000
H      -6.114400000000000      1.188700000000000     -0.827400000000000
H      -6.718300000000000     -1.415800000000000      0.669900000000000
H      -6.680000000000000     -1.238400000000000     -1.086100000000000
H      -8.516200000000000      0.448700000000000     -0.963900000000000
H      -8.547900000000000      0.307000000000000      0.791200000000000
H      -9.217200000000000     -2.074200000000000      0.613700000000000
H      -9.126200000000001     -1.988000000000000     -1.142600000000000
H     -11.047400000000000     -0.353700000000000      0.594100000000000
H     -10.956600000000000     -0.285600000000000     -1.167400000000000
H     -11.567500000000001     -2.711800000000000     -1.296400000000000
H     -11.659500000000000     -2.778900000000000      0.474900000000000
H     -12.797700000000001     -1.770800000000000     -0.435200000000000
