95

O       3.518000000000000     -2.827600000000000      2.105400000000000
O       1.602100000000000     -3.987000000000000      1.680000000000000
C       1.021900000000000     -1.442300000000000      0.289300000000000
C       0.779100000000000      1.629500000000000      0.343700000000000
C       2.329300000000000     -2.245900000000000      0.153800000000000
C       1.056900000000000     -0.585700000000000      1.581400000000000
C       0.849900000000000     -0.557000000000000     -0.972100000000000
C       1.642100000000000      0.803500000000000      1.332300000000000
C       0.054700000000000      0.713700000000000     -0.676500000000000
C       1.693100000000000      2.624400000000000     -0.397000000000000
C      -0.143600000000000     -2.444600000000000      0.393000000000000
C      -0.278400000000000      2.440200000000000      1.116900000000000
C       2.277900000000000     -3.120100000000000     -1.112800000000000
C       3.532600000000000     -1.285900000000000      0.117400000000000
C       2.344300000000000      3.601300000000000      0.591500000000000
C       2.759300000000000      1.878500000000000     -1.210700000000000
C       3.606900000000000     -3.814900000000000     -1.411700000000000
C       4.851900000000000     -1.994700000000000     -0.191700000000000
C       2.413800000000000     -3.125000000000000      1.377700000000000
C      -1.460900000000000     -1.781900000000000      0.019900000000000
C       4.762100000000000     -2.822300000000000     -1.468500000000000
C      -1.159600000000000      3.227900000000000      0.159700000000000
C       3.297000000000000      4.564500000000000     -0.112900000000000
C       3.711400000000000      2.844700000000000     -1.911900000000000
C       4.349900000000000      3.819600000000000     -0.927600000000000
C      -2.610300000000000     -2.788200000000000      0.096700000000000
C      -2.226300000000000      4.009800000000000      0.929800000000000
C      -3.939100000000000     -2.147500000000000     -0.308100000000000
C      -3.145500000000000      4.777800000000000     -0.022500000000000
C      -5.094200000000000     -3.145600000000000     -0.198900000000000
C      -4.247200000000000      5.559300000000000      0.696700000000000
C      -6.427100000000000     -2.493200000000000     -0.572900000000000
C      -5.147800000000000      6.344900000000000     -0.243700000000000
C      -7.622200000000000     -3.440900000000000     -0.450500000000000
C      -8.952299999999999     -2.789100000000000     -0.795200000000000
H       0.043300000000000     -0.450400000000000      1.979100000000000
H       1.601800000000000     -1.059700000000000      2.403300000000000
H       1.779700000000000     -0.345900000000000     -1.470500000000000
H       0.327400000000000     -1.111100000000000     -1.763100000000000
H       2.695600000000000      0.795900000000000      1.105800000000000
H       1.624700000000000      1.313200000000000      2.307600000000000
H      -0.955600000000000      0.511500000000000     -0.335100000000000
H      -0.087300000000000      1.244500000000000     -1.628000000000000
H       1.126000000000000      3.209100000000000     -1.130100000000000
H      -0.269300000000000     -2.805800000000000      1.420500000000000
H      -0.056700000000000     -3.319000000000000     -0.249900000000000
H      -0.919700000000000      1.742600000000000      1.674100000000000
H       0.147800000000000      3.087900000000000      1.888900000000000
H       2.019100000000000     -2.539400000000000     -2.003700000000000
H       1.552900000000000     -3.935200000000000     -1.044200000000000
H       3.711900000000000     -0.765200000000000      1.058200000000000
H       3.451500000000000     -0.580100000000000     -0.693500000000000
H       1.602300000000000      4.228300000000000      1.093100000000000
H       2.908100000000000      3.077900000000000      1.371100000000000
H       2.319800000000000      1.314800000000000     -2.030400000000000
H       3.410600000000000      1.278900000000000     -0.591700000000000
H       3.812600000000000     -4.570800000000000     -0.643900000000000
H       3.535900000000000     -4.348600000000000     -2.366700000000000
H       5.200300000000000     -2.635900000000000      0.622200000000000
H       5.636600000000000     -1.237800000000000     -0.319400000000000
H      -1.486100000000000     -1.411100000000000     -1.005900000000000
H      -1.704200000000000     -0.980000000000000      0.723300000000000
H       5.704100000000000     -3.359000000000000     -1.628400000000000
H       4.627400000000000     -2.154700000000000     -2.328700000000000
H      -1.670700000000000      2.580900000000000     -0.559500000000000
H      -0.584800000000000      3.962400000000000     -0.410600000000000
H       3.789700000000000      5.204900000000000      0.627500000000000
H       2.724300000000000      5.225700000000000     -0.775300000000000
H       3.163200000000000      3.409400000000000     -2.676600000000000
H       4.494700000000000      2.282100000000000     -2.433300000000000
H       4.971900000000000      4.539000000000000     -1.472000000000000
H       5.015100000000000      3.271000000000000     -0.249500000000000
H      -2.687900000000000     -3.181500000000000      1.117800000000000
H      -2.403900000000000     -3.640600000000000     -0.562300000000000
H      -1.745500000000000      4.712300000000000      1.621300000000000
H      -2.826600000000000      3.318900000000000      1.534200000000000
H       3.590200000000000     -3.388100000000000      2.907000000000000
H      -3.872000000000000     -1.774900000000000     -1.337600000000000
H      -4.140000000000000     -1.282800000000000      0.336200000000000
H      -2.545000000000000      5.474100000000000     -0.620900000000000
H      -3.609300000000000      4.075200000000000     -0.725900000000000
H      -5.152200000000000     -3.531200000000000      0.826100000000000
H      -4.907200000000000     -4.002200000000000     -0.857400000000000
H      -4.863400000000000      4.864400000000000      1.279600000000000
H      -3.790900000000000      6.254900000000000      1.411100000000000
H      -6.370800000000000     -2.117800000000000     -1.602200000000000
H      -6.596200000000000     -1.622100000000000      0.072400000000000
H      -5.650700000000000      5.677200000000000     -0.950300000000000
H      -5.914400000000000      6.881800000000000      0.323500000000000
H      -4.570000000000000      7.077900000000000     -0.815400000000000
H      -7.674600000000000     -3.828200000000000      0.574100000000000
H      -7.469100000000000     -4.304300000000000     -1.108900000000000
H      -8.950799999999999     -2.421500000000000     -1.826200000000000
H      -9.768200000000000     -3.511000000000000     -0.691300000000000
H      -9.156900000000000     -1.944600000000000     -0.129700000000000
