95

N      -1.779900000000000      0.539100000000000     -0.065800000000000
N       1.792700000000000     -0.117000000000000      0.668400000000000
C      -0.386400000000000      0.310300000000000     -0.461700000000000
C       0.490000000000000      0.547200000000000      0.781000000000000
C       0.022400000000000      1.216300000000000     -1.642200000000000
C      -1.872400000000000      1.801900000000000      0.696700000000000
C      -2.318300000000000     -0.606300000000000      0.694700000000000
C       1.653700000000000     -1.537900000000000      1.050700000000000
C       2.820300000000000      0.573800000000000      1.472700000000000
C      -3.306400000000000      2.308100000000000      0.939300000000000
C      -2.487500000000000     -1.873100000000000     -0.162000000000000
C      -0.839100000000000      1.017800000000000     -2.894100000000000
C       2.872100000000000     -2.419500000000000      0.719500000000000
C       3.180600000000000      1.965500000000000      0.924400000000000
C      -4.085800000000000      2.555900000000000     -0.357100000000000
C      -3.248300000000000     -3.001600000000000      0.554400000000000
C       3.220700000000000     -2.430600000000000     -0.773200000000000
C       4.398100000000000      2.601600000000000      1.616300000000000
C      -5.568700000000000      2.882800000000000     -0.130700000000000
C      -4.713900000000000     -2.700900000000000      0.898300000000000
C       4.536700000000000     -3.153800000000000     -1.092300000000000
C       5.733100000000000      1.870200000000000      1.416800000000000
C      -6.394200000000000      1.793400000000000      0.569300000000000
C      -5.609600000000000     -2.547700000000000     -0.335100000000000
C      -6.332600000000000      0.435600000000000     -0.134200000000000
C      -7.019600000000000     -2.033100000000000     -0.013900000000000
C      -7.091700000000000     -0.645200000000000      0.639700000000000
C       5.798100000000000     -2.564000000000000     -0.444500000000000
C       6.232700000000000      1.899100000000000     -0.031100000000000
C       6.008500000000000     -1.081100000000000     -0.759700000000000
C       7.444100000000000      0.991100000000000     -0.284200000000000
C       7.222500000000000     -0.506500000000000     -0.025300000000000
C      -0.371600000000000      1.908500000000000     -4.035500000000000
H      -0.262100000000000     -0.708700000000000     -0.835600000000000
H       0.040000000000000      0.212800000000000      1.722800000000000
H       0.630100000000000      1.625900000000000      0.889600000000000
H       1.064900000000000      0.989700000000000     -1.903800000000000
H       0.017000000000000      2.275600000000000     -1.361700000000000
H      -1.359700000000000      2.617800000000000      0.176400000000000
H      -1.431700000000000      1.721700000000000      1.697400000000000
H      -3.312000000000000     -0.337200000000000      1.054900000000000
H      -1.732000000000000     -0.843500000000000      1.588600000000000
H       1.446100000000000     -1.621400000000000      2.126000000000000
H       0.796800000000000     -1.989400000000000      0.538300000000000
H       2.502700000000000      0.656700000000000      2.520200000000000
H       3.732100000000000     -0.023700000000000      1.468600000000000
H      -3.251500000000000      3.251300000000000      1.498200000000000
H      -3.839000000000000      1.610800000000000      1.591400000000000
H      -1.507600000000000     -2.282100000000000     -0.429400000000000
H      -2.985200000000000     -1.623500000000000     -1.105300000000000
H      -0.795800000000000     -0.030200000000000     -3.212100000000000
H      -1.887600000000000      1.249900000000000     -2.677100000000000
H       2.649900000000000     -3.447400000000000      1.033900000000000
H       3.728700000000000     -2.106300000000000      1.321900000000000
H       2.347100000000000      2.661100000000000      1.067600000000000
H       3.350400000000000      1.908200000000000     -0.156300000000000
H      -3.623400000000000      3.398600000000000     -0.886700000000000
H      -4.002400000000000      1.699000000000000     -1.033300000000000
H      -3.210500000000000     -3.900800000000000     -0.073000000000000
H      -2.716900000000000     -3.248500000000000      1.482000000000000
H       3.258800000000000     -1.412200000000000     -1.173400000000000
H       2.410200000000000     -2.933000000000000     -1.316600000000000
H       4.194900000000000      2.667000000000000      2.692500000000000
H       4.504100000000000      3.632900000000000      1.257500000000000
H      -6.024800000000000      3.094500000000000     -1.105900000000000
H      -5.645800000000000      3.807900000000000      0.453800000000000
H      -4.764400000000000     -1.815800000000000      1.536900000000000
H      -5.102700000000000     -3.529100000000000      1.504400000000000
H       4.449400000000000     -4.204900000000000     -0.791000000000000
H       4.670900000000000     -3.154600000000000     -2.181300000000000
H       6.488400000000000      2.352400000000000      2.050500000000000
H       5.646200000000000      0.845200000000000      1.785100000000000
H      -7.438500000000000      2.126400000000000      0.616500000000000
H      -6.061300000000000      1.689400000000000      1.608200000000000
H      -5.701900000000000     -3.526600000000000     -0.822500000000000
H      -5.151000000000000     -1.889700000000000     -1.078300000000000
H      -6.742000000000000      0.524400000000000     -1.147300000000000
H      -5.288400000000000      0.132800000000000     -0.230700000000000
H      -7.593500000000000     -2.007500000000000     -0.948800000000000
H      -7.525900000000000     -2.754100000000000      0.639600000000000
H      -8.146699999999999     -0.356300000000000      0.724500000000000
H      -6.708400000000000     -0.702700000000000      1.665000000000000
H       6.667300000000000     -3.133000000000000     -0.797100000000000
H       5.758200000000000     -2.711400000000000      0.640700000000000
H       6.515100000000000      2.929600000000000     -0.281800000000000
H       5.435600000000000      1.632800000000000     -0.730600000000000
H       5.118700000000000     -0.524900000000000     -0.459000000000000
H       6.129100000000000     -0.945500000000000     -1.840900000000000
H       8.284800000000001      1.331900000000000      0.332400000000000
H       7.754400000000000      1.121200000000000     -1.328700000000000
H       7.118500000000000     -0.680600000000000      1.051900000000000
H       8.123900000000001     -1.049100000000000     -0.336200000000000
H      -0.435100000000000      2.965800000000000     -3.759100000000000
H      -0.996800000000000      1.750300000000000     -4.919800000000000
H       0.664900000000000      1.685500000000000     -4.307900000000000
