96

N      -0.429400000000000     -0.198800000000000      2.501700000000000
N      -0.806200000000000     -1.882400000000000      0.859900000000000
C       0.553800000000000      0.131200000000000      0.238700000000000
C      -0.643400000000000     -0.442600000000000      1.070600000000000
C       1.210700000000000      1.364300000000000      0.869200000000000
C       1.649600000000000     -0.908400000000000     -0.050000000000000
C      -1.962100000000000      0.241800000000000      0.693700000000000
C       2.344000000000000      1.873700000000000     -0.048900000000000
C       0.144100000000000      2.421500000000000      1.231900000000000
C       1.218000000000000     -1.768600000000000     -1.263700000000000
C       1.887400000000000     -1.753500000000000      1.226000000000000
C      -2.207800000000000      0.092200000000000     -0.824300000000000
C      -3.112600000000000     -0.266100000000000      1.590900000000000
C       3.065000000000000      3.128300000000000      0.460200000000000
C      -0.504600000000000      3.131700000000000      0.036800000000000
C       2.248800000000000     -1.852100000000000     -2.391800000000000
C       3.369000000000000     -1.994000000000000      1.553400000000000
C      -3.517600000000000      0.714100000000000     -1.324900000000000
C      -3.557100000000000     -1.710700000000000      1.328400000000000
C       3.382800000000000      4.157500000000000     -0.628800000000000
C      -0.719100000000000      4.634400000000000      0.240400000000000
C       3.570300000000000     -2.562400000000000     -2.095500000000000
C       3.739700000000000     -3.461400000000000      1.796000000000000
C      -4.260700000000000     -0.132800000000000     -2.362500000000000
C      -5.073600000000000     -1.918900000000000      1.373600000000000
C       2.203000000000000      4.752900000000000     -1.410400000000000
C       0.523100000000000      5.500400000000000      0.495400000000000
C       3.472600000000000     -4.078000000000000     -1.890600000000000
C       4.251800000000000     -4.196200000000000      0.552500000000000
C       1.390100000000000      5.849100000000000     -0.716900000000000
C       3.166300000000000     -4.550900000000000     -0.467300000000000
C      -4.706700000000000     -1.540900000000000     -1.943100000000000
C      -5.928400000000000     -1.130800000000000      0.370400000000000
C      -5.960900000000000     -1.643700000000000     -1.071300000000000
H       0.236900000000000      0.477600000000000     -0.741500000000000
H       1.721200000000000      1.093900000000000      1.802000000000000
H       2.596100000000000     -0.485500000000000     -0.351400000000000
H      -1.978000000000000      1.295300000000000      0.922500000000000
H       3.169800000000000      1.165100000000000     -0.118900000000000
H       1.983700000000000      1.999200000000000     -1.073700000000000
H      -0.601800000000000      2.107200000000000      1.959900000000000
H       0.662900000000000      3.168300000000000      1.838800000000000
H       0.951400000000000     -2.788800000000000     -0.981800000000000
H       0.319100000000000     -1.353600000000000     -1.736400000000000
H       1.533900000000000     -1.327000000000000      2.149400000000000
H       1.439100000000000     -2.741900000000000      1.131000000000000
H      -2.142400000000000     -0.950900000000000     -1.138800000000000
H      -1.448900000000000      0.607400000000000     -1.414600000000000
H      -3.959600000000000      0.416600000000000      1.477300000000000
H      -2.873400000000000     -0.163400000000000      2.656400000000000
H      -0.793100000000000     -0.979400000000000      3.044800000000000
H       0.522200000000000     -0.041100000000000      2.800000000000000
H      -0.752400000000000     -2.215200000000000     -0.089400000000000
H      -0.359100000000000     -2.479300000000000      1.539800000000000
H       2.547200000000000      3.615300000000000      1.282600000000000
H       4.021100000000000      2.814200000000000      0.902600000000000
H       0.060400000000000      2.972100000000000     -0.879300000000000
H      -1.489700000000000      2.730000000000000     -0.194800000000000
H       1.776600000000000     -2.345200000000000     -3.251600000000000
H       2.476300000000000     -0.831000000000000     -2.725500000000000
H       4.041300000000000     -1.551600000000000      0.813300000000000
H       3.588300000000000     -1.448000000000000      2.482300000000000
H      -3.277100000000000      1.676900000000000     -1.796900000000000
H      -4.193200000000000      0.978800000000000     -0.514600000000000
H      -3.117900000000000     -2.354500000000000      2.101800000000000
H      -3.205100000000000     -2.100200000000000      0.377500000000000
H       3.963500000000000      4.974100000000000     -0.182000000000000
H       4.051900000000000      3.674800000000000     -1.353600000000000
H      -1.255700000000000      5.033800000000000     -0.629400000000000
H      -1.396200000000000      4.760000000000000      1.095800000000000
H       4.203900000000000     -2.406600000000000     -2.979700000000000
H       4.101600000000000     -2.074800000000000     -1.277700000000000
H       4.559500000000000     -3.472600000000000      2.526800000000000
H       2.914800000000000     -4.012200000000000      2.262700000000000
H      -3.602300000000000     -0.238500000000000     -3.235000000000000
H      -5.135400000000000      0.429000000000000     -2.712900000000000
H      -5.414400000000000     -1.652500000000000      2.382900000000000
H      -5.285300000000000     -2.989300000000000      1.257700000000000
H       2.643300000000000      5.228400000000000     -2.299000000000000
H       1.553200000000000      3.979600000000000     -1.818600000000000
H       0.142300000000000      6.461100000000000      0.872000000000000
H       1.133000000000000      5.120800000000000      1.314400000000000
H       2.723600000000000     -4.494400000000000     -2.575100000000000
H       4.431900000000000     -4.522000000000000     -2.188100000000000
H       5.068800000000000     -3.625800000000000      0.096300000000000
H       4.708000000000000     -5.135200000000000      0.893600000000000
H       2.087500000000000      6.640100000000000     -0.410200000000000
H       0.740300000000000      6.309800000000000     -1.472800000000000
H       3.097500000000000     -5.646900000000000     -0.505800000000000
H       2.178400000000000     -4.229200000000000     -0.147200000000000
H      -3.886400000000000     -2.123000000000000     -1.525200000000000
H      -4.954100000000000     -2.064800000000000     -2.878000000000000
H      -5.715200000000000     -0.062700000000000      0.399600000000000
H      -6.962800000000000     -1.207100000000000      0.735700000000000
H      -6.774100000000000     -1.120400000000000     -1.591700000000000
H      -6.262400000000000     -2.699300000000000     -1.045400000000000
