96

N      -4.879400000000000     -2.866100000000000     -0.724300000000000
N       5.082500000000000     -1.965900000000000      0.045000000000000
C      -2.941500000000000      0.898100000000000      0.220900000000000
C      -3.605500000000000     -0.405500000000000     -0.250800000000000
C      -1.424600000000000      0.746800000000000      0.123900000000000
C       1.291700000000000      1.883200000000000     -0.280000000000000
C       2.808500000000000      1.730500000000000     -0.376600000000000
C      -5.168600000000000     -0.342000000000000     -0.321500000000000
C      -3.068900000000000     -1.686700000000000      0.502700000000000
C      -0.926700000000000      1.159600000000000     -1.267000000000000
C      -0.727300000000000      1.566100000000000      1.217100000000000
C       3.170900000000000      0.260500000000000     -0.165600000000000
C       0.594200000000000      1.064200000000000     -1.373600000000000
C       0.793600000000000      1.470500000000000      1.110800000000000
C      -3.380500000000000      2.092700000000000     -0.672200000000000
C      -3.327600000000000      1.147000000000000      1.693000000000000
C      -5.704200000000000     -1.674600000000000     -0.933900000000000
C      -4.127900000000000     -2.820300000000000      0.516900000000000
C       4.082000000000000      0.097100000000000      1.055200000000000
C       3.885800000000000     -0.303500000000000     -1.397600000000000
C       3.449100000000000      2.636000000000000      0.711600000000000
C       4.536300000000000     -1.361300000000000      1.275500000000000
C       4.336700000000000     -1.768000000000000     -1.213100000000000
C       3.247900000000000      2.172400000000000     -1.785500000000000
C      -5.821700000000000     -0.074000000000000      1.052100000000000
C      -5.628300000000000      0.807000000000000     -1.252300000000000
C      -2.648100000000000     -1.419300000000000      1.963400000000000
C      -1.810100000000000     -2.191300000000000     -0.247800000000000
C      -2.788000000000000      3.451900000000000     -0.320100000000000
C       3.137400000000000      4.123400000000000      0.599600000000000
C       5.689000000000000     -1.355100000000000      2.307200000000000
C       3.408700000000000     -2.214800000000000      1.882300000000000
C       3.150300000000000     -2.740500000000000     -1.335600000000000
C       5.314600000000000     -2.118200000000000     -2.359500000000000
H      -3.320500000000000     -0.529000000000000     -1.307700000000000
H      -1.031400000000000     -0.234700000000000      0.305100000000000
H       1.001400000000000      2.928100000000000     -0.449100000000000
H      -1.155500000000000      2.168300000000000     -1.596500000000000
H      -1.355100000000000      0.496400000000000     -2.028700000000000
H      -0.951700000000000      1.204300000000000      2.224900000000000
H      -0.979400000000000      2.626600000000000      1.204500000000000
H       2.299900000000000     -0.370000000000000      0.007400000000000
H       0.855900000000000      0.002400000000000     -1.350700000000000
H       0.856100000000000      1.426900000000000     -2.372600000000000
H       1.193300000000000      2.126200000000000      1.890000000000000
H       1.078600000000000      0.450900000000000      1.386100000000000
H      -3.283500000000000      1.915700000000000     -1.746200000000000
H      -4.392600000000000      2.356500000000000     -0.416300000000000
H      -4.365700000000000      1.351600000000000      1.891300000000000
H      -2.963900000000000      2.151700000000000      1.954300000000000
H      -2.919300000000000      0.621200000000000      2.541600000000000
H      -5.788100000000000     -1.573800000000000     -2.023300000000000
H      -6.721800000000000     -1.879100000000000     -0.579500000000000
H      -4.825500000000000     -2.707000000000000      1.355800000000000
H      -3.644700000000000     -3.791700000000000      0.680600000000000
H       4.999600000000000      0.683500000000000      0.928400000000000
H       3.581000000000000      0.413500000000000      1.976400000000000
H       3.234700000000000     -0.299400000000000     -2.278300000000000
H       4.791700000000000      0.275900000000000     -1.614600000000000
H       3.211000000000000      2.351500000000000      1.738500000000000
H       4.541300000000000      2.592000000000000      0.615500000000000
H       4.336400000000000      2.285200000000000     -1.855500000000000
H       2.851500000000000      3.174100000000000     -1.998900000000000
H       2.900200000000000      1.578200000000000     -2.631800000000000
H      -5.325600000000000     -0.544800000000000      1.898200000000000
H      -6.037000000000000      0.980900000000000      1.245600000000000
H      -6.829900000000000     -0.512300000000000      1.059600000000000
H      -5.002900000000000      0.955800000000000     -2.134800000000000
H      -6.581200000000000      0.486800000000000     -1.707700000000000
H      -5.979800000000000      1.721900000000000     -0.769700000000000
H      -2.334500000000000     -2.394600000000000      2.374300000000000
H      -3.481100000000000     -1.173800000000000      2.625500000000000
H      -1.745000000000000     -0.836200000000000      2.127200000000000
H      -1.580000000000000     -1.657600000000000     -1.173900000000000
H      -1.944900000000000     -3.231200000000000     -0.573800000000000
H      -0.910500000000000     -2.226200000000000      0.379000000000000
H      -5.467400000000000     -3.697800000000000     -0.755200000000000
H       6.027000000000000     -1.601600000000000     -0.090300000000000
H      -3.238800000000000      4.201400000000000     -0.984900000000000
H      -3.049600000000000      3.775200000000000      0.692000000000000
H      -1.714700000000000      3.578900000000000     -0.444900000000000
H       3.425300000000000      4.537600000000000     -0.370000000000000
H       2.081100000000000      4.341100000000000      0.778200000000000
H       3.704800000000000      4.672300000000000      1.360000000000000
H       6.549100000000000     -0.774200000000000      1.952700000000000
H       5.366900000000000     -0.912100000000000      3.257000000000000
H       6.041000000000000     -2.372100000000000      2.518700000000000
H       2.469700000000000     -2.151300000000000      1.331500000000000
H       3.183600000000000     -1.890200000000000      2.905600000000000
H       3.696800000000000     -3.271300000000000      1.936100000000000
H       2.306200000000000     -2.480800000000000     -0.696000000000000
H       2.761900000000000     -2.752600000000000     -2.361500000000000
H       3.452600000000000     -3.766400000000000     -1.094400000000000
H       4.837700000000000     -1.990900000000000     -3.338600000000000
H       6.204000000000000     -1.476700000000000     -2.345400000000000
H       5.655300000000000     -3.158300000000000     -2.290000000000000
