96

N      -1.194100000000000     -1.022200000000000     -0.543200000000000
N      -0.021700000000000     -0.395400000000000     -1.129300000000000
C       1.232200000000000     -0.660400000000000     -0.407600000000000
C       0.276200000000000     -2.751000000000000      0.579600000000000
C      -1.035400000000000     -2.447000000000000     -0.180100000000000
C       1.474500000000000     -2.154600000000000     -0.162600000000000
C       2.458200000000000     -0.028000000000000     -1.078400000000000
C      -1.675700000000000     -0.196400000000000      0.568300000000000
C       0.492800000000000     -4.239900000000000      0.851700000000000
C      -1.271000000000000     -3.343400000000000     -1.405600000000000
C       2.267700000000000      1.498900000000000     -1.215300000000000
C       3.763100000000000     -0.434300000000000     -0.365000000000000
C      -1.355600000000000      1.294300000000000      0.316800000000000
C      -3.173800000000000     -0.481200000000000      0.798600000000000
C      -0.002500000000000     -0.577300000000000     -2.573300000000000
C       1.755600000000000     -4.471300000000000      1.673100000000000
C      -2.595600000000000     -3.009600000000000     -2.074600000000000
C       3.337500000000000      2.197400000000000     -2.069900000000000
C       3.840300000000000     -0.099200000000000      1.133600000000000
C      -1.953000000000000      1.901900000000000     -0.966300000000000
C      -3.731400000000000      0.127600000000000      2.097900000000000
C       4.099300000000000      3.342800000000000     -1.383600000000000
C       5.238700000000000      0.369200000000000      1.563800000000000
C      -2.331700000000000      3.382900000000000     -0.804100000000000
C      -5.198800000000000      0.565900000000000      1.971200000000000
C       5.156100000000000      2.889000000000000     -0.368000000000000
C       5.328600000000000      1.846200000000000      1.979400000000000
C       1.686000000000000     -3.741700000000000      3.005100000000000
C      -2.818000000000000     -3.880500000000000     -3.300900000000000
C       4.634100000000000      2.861500000000000      1.068800000000000
C      -3.827100000000000      3.684100000000000     -0.999100000000000
C      -5.439500000000000      2.066200000000000      2.207500000000000
C      -4.808100000000000      2.868900000000000     -0.146700000000000
C      -4.608000000000000      3.036200000000000      1.358400000000000
H       1.136400000000000     -0.197500000000000      0.583200000000000
H       0.190400000000000     -2.237700000000000      1.544900000000000
H      -1.831600000000000     -2.740200000000000      0.513700000000000
H       2.354900000000000     -2.296300000000000      0.457700000000000
H       1.653000000000000     -2.683300000000000     -1.106800000000000
H       2.556200000000000     -0.434200000000000     -2.094800000000000
H      -1.144200000000000     -0.462200000000000      1.491900000000000
H      -0.375400000000000     -4.653300000000000      1.379300000000000
H       0.599600000000000     -4.799900000000000     -0.084100000000000
H      -0.448100000000000     -3.289500000000000     -2.122000000000000
H      -1.323000000000000     -4.391900000000000     -1.087500000000000
H       2.188800000000000      1.956900000000000     -0.227700000000000
H       1.307300000000000      1.724700000000000     -1.689300000000000
H       4.588900000000000      0.048800000000000     -0.894100000000000
H       3.978300000000000     -1.499700000000000     -0.512800000000000
H      -0.283600000000000      1.515300000000000      0.357600000000000
H      -1.735200000000000      1.849700000000000      1.178700000000000
H      -3.741300000000000     -0.128100000000000     -0.067400000000000
H      -3.391300000000000     -1.552800000000000      0.848800000000000
H      -1.004300000000000     -0.467600000000000     -3.004400000000000
H       0.399700000000000     -1.544900000000000     -2.882200000000000
H       0.596900000000000      0.191200000000000     -3.070200000000000
H       1.826100000000000     -5.547300000000000      1.877800000000000
H       2.672100000000000     -4.218500000000000      1.132300000000000
H      -3.421100000000000     -3.169300000000000     -1.370600000000000
H      -2.646700000000000     -1.965300000000000     -2.395200000000000
H       2.824300000000000      2.634000000000000     -2.938000000000000
H       4.049500000000000      1.481300000000000     -2.495000000000000
H       3.612400000000000     -1.011400000000000      1.698300000000000
H       3.078700000000000      0.621700000000000      1.439500000000000
H      -2.797800000000000      1.323100000000000     -1.346500000000000
H      -1.197000000000000      1.856700000000000     -1.758200000000000
H      -3.113100000000000      0.943900000000000      2.476800000000000
H      -3.669200000000000     -0.647200000000000      2.874200000000000
H       3.398700000000000      4.056600000000000     -0.934500000000000
H       4.625400000000000      3.890100000000000     -2.177000000000000
H       5.982900000000000      0.160300000000000      0.786700000000000
H       5.552900000000000     -0.228700000000000      2.429500000000000
H      -1.783400000000000      3.963200000000000     -1.558000000000000
H      -1.998500000000000      3.778700000000000      0.161700000000000
H      -5.785400000000000      0.020600000000000      2.722300000000000
H      -5.623300000000000      0.272300000000000      1.004800000000000
H       5.987100000000000      3.606400000000000     -0.395900000000000
H       5.590900000000000      1.936300000000000     -0.676800000000000
H       6.387000000000000      2.115600000000000      2.082700000000000
H       4.891500000000000      1.945200000000000      2.981500000000000
H       0.732000000000000     -3.917500000000000      3.512400000000000
H       1.835400000000000     -2.663800000000000      2.895400000000000
H       2.482900000000000     -4.104200000000000      3.663600000000000
H      -2.031700000000000     -3.718600000000000     -4.045200000000000
H      -3.779400000000000     -3.641100000000000     -3.766100000000000
H      -2.826500000000000     -4.942100000000000     -3.033900000000000
H       4.778100000000000      3.860400000000000      1.502100000000000
H       3.556300000000000      2.700300000000000      1.105700000000000
H      -3.992100000000000      4.752200000000000     -0.809900000000000
H      -4.078000000000000      3.518600000000000     -2.054600000000000
H      -5.242100000000000      2.286500000000000      3.264400000000000
H      -6.504500000000000      2.274400000000000      2.046100000000000
H      -4.744700000000000      1.819100000000000     -0.436800000000000
H      -5.828700000000000      3.183300000000000     -0.399900000000000
H      -3.556400000000000      2.938200000000000      1.630200000000000
H      -4.887100000000000      4.061200000000000      1.634500000000000
