96

N      -1.190300000000000     -0.854000000000000     -0.855200000000000
N      -0.093400000000000     -0.054900000000000     -1.398100000000000
C       0.757300000000000     -1.684300000000000      0.154400000000000
C       1.149800000000000     -0.498300000000000     -0.736000000000000
C      -0.719900000000000     -1.393300000000000      0.430400000000000
C       1.687200000000000      0.675400000000000      0.088500000000000
C      -2.355700000000000      0.025300000000000     -0.680900000000000
C       1.019600000000000     -3.015600000000000     -0.560200000000000
C      -1.535000000000000     -2.596800000000000      0.892900000000000
C       2.815000000000000      0.182800000000000      1.016800000000000
C       2.024100000000000      1.887000000000000     -0.813800000000000
C      -0.036600000000000     -0.285900000000000     -2.842700000000000
C      -3.158800000000000      0.089100000000000     -2.000400000000000
C      -1.844500000000000      1.406800000000000     -0.218100000000000
C       2.499400000000000     -3.387600000000000     -0.519600000000000
C      -0.954100000000000     -3.195200000000000      2.167700000000000
C       3.298500000000000      1.215900000000000      2.037900000000000
C       2.929300000000000      1.679100000000000     -2.040300000000000
C      -4.529700000000000     -0.610500000000000     -1.958300000000000
C      -2.954100000000000      2.379300000000000      0.208600000000000
C       4.636000000000000      0.840100000000000      2.691500000000000
C       4.385700000000000      1.282400000000000     -1.790600000000000
C       2.755700000000000     -4.720700000000000     -1.204200000000000
C      -1.780700000000000     -4.379400000000000      2.642700000000000
C      -5.650500000000000      0.251100000000000     -1.356600000000000
C      -3.563900000000000      2.031700000000000      1.570000000000000
C       5.864200000000000      1.489200000000000      2.033300000000000
C       5.181500000000000      2.317200000000000     -0.990600000000000
C       6.356700000000000      0.810400000000000      0.747000000000000
C       6.503600000000000      1.767900000000000     -0.444800000000000
C      -5.879200000000000      0.001500000000000      0.135300000000000
C      -4.892500000000000      2.734100000000000      1.861600000000000
C      -6.670300000000000      1.101800000000000      0.848900000000000
C      -6.054600000000000      2.508200000000000      0.883000000000000
H       1.237400000000000     -1.760200000000000      1.124200000000000
H       1.919900000000000     -0.804300000000000     -1.452400000000000
H      -0.763500000000000     -0.637000000000000      1.225600000000000
H       0.906900000000000      1.026000000000000      0.774200000000000
H      -2.997400000000000     -0.395800000000000      0.090900000000000
H       0.476400000000000     -3.842700000000000     -0.096800000000000
H       0.676800000000000     -2.978600000000000     -1.600900000000000
H      -2.567400000000000     -2.287400000000000      1.098000000000000
H      -1.610400000000000     -3.358100000000000      0.107300000000000
H       2.529300000000000     -0.655800000000000      1.647700000000000
H       3.641200000000000     -0.195800000000000      0.421700000000000
H       1.078100000000000      2.290900000000000     -1.198800000000000
H       2.418400000000000      2.706300000000000     -0.206100000000000
H      -0.788900000000000      0.317700000000000     -3.358600000000000
H      -0.184500000000000     -1.338800000000000     -3.111100000000000
H       0.906100000000000      0.021500000000000     -3.292200000000000
H      -2.625800000000000     -0.444000000000000     -2.793800000000000
H      -3.266900000000000      1.116500000000000     -2.365600000000000
H      -1.317700000000000      1.923600000000000     -1.030600000000000
H      -1.165400000000000      1.338500000000000      0.634700000000000
H       2.838900000000000     -3.452700000000000      0.521000000000000
H       3.109000000000000     -2.620500000000000     -1.008300000000000
H       0.077200000000000     -3.534000000000000      2.037300000000000
H      -0.939700000000000     -2.435300000000000      2.958300000000000
H       2.535900000000000      1.280400000000000      2.825600000000000
H       3.368800000000000      2.220000000000000      1.616000000000000
H       2.934800000000000      2.623800000000000     -2.600900000000000
H       2.510700000000000      0.947900000000000     -2.725600000000000
H      -4.460600000000000     -1.584000000000000     -1.459300000000000
H      -4.812300000000000     -0.818400000000000     -2.999100000000000
H      -3.714100000000000      2.427900000000000     -0.571800000000000
H      -2.528500000000000      3.389000000000000      0.275900000000000
H       4.758400000000000     -0.247200000000000      2.756900000000000
H       4.603000000000000      1.207400000000000      3.725800000000000
H       4.876000000000000      1.166500000000000     -2.766700000000000
H       4.430700000000000      0.290700000000000     -1.340900000000000
H       2.456600000000000     -4.684900000000000     -2.256600000000000
H       2.199900000000000     -5.527300000000000     -0.715500000000000
H       3.820700000000000     -4.969400000000000     -1.162200000000000
H      -2.815000000000000     -4.082300000000000      2.843800000000000
H      -1.360600000000000     -4.788600000000000      3.566900000000000
H      -1.790800000000000     -5.176500000000000      1.892500000000000
H      -5.456400000000000      1.303900000000000     -1.574300000000000
H      -6.587600000000000      0.009500000000000     -1.875400000000000
H      -3.678700000000000      0.956200000000000      1.704200000000000
H      -2.847000000000000      2.330800000000000      2.346600000000000
H       5.683000000000000      2.559500000000000      1.881900000000000
H       6.684200000000000      1.435000000000000      2.762300000000000
H       5.405200000000000      3.160700000000000     -1.656300000000000
H       4.595500000000000      2.733400000000000     -0.170900000000000
H       5.744300000000000     -0.052600000000000      0.478700000000000
H       7.354100000000000      0.398200000000000      0.951500000000000
H       7.136100000000000      2.611300000000000     -0.140500000000000
H       7.041100000000000      1.253600000000000     -1.251000000000000
H      -4.948400000000000     -0.182400000000000      0.661100000000000
H      -6.442800000000000     -0.936000000000000      0.234800000000000
H      -4.699800000000000      3.814100000000000      1.904800000000000
H      -5.220700000000000      2.447100000000000      2.868600000000000
H      -6.868900000000000      0.778000000000000      1.878200000000000
H      -7.651000000000000      1.177400000000000      0.361200000000000
H      -5.790100000000000      2.849800000000000     -0.120800000000000
H      -6.857300000000000      3.186900000000000      1.204300000000000
