96

O       7.102800000000000     -1.403200000000000      0.978800000000000
O      -6.873000000000000      1.374800000000000      0.065700000000000
C       0.381000000000000      1.134500000000000     -0.424900000000000
C      -0.417600000000000     -0.110100000000000      0.099500000000000
C       1.849300000000000      1.051400000000000      0.098400000000000
C      -1.871300000000000      0.270500000000000     -0.275800000000000
C       3.994500000000000     -0.498100000000000      0.114300000000000
C       2.465300000000000     -0.342800000000000     -0.163100000000000
C      -0.473900000000000      2.289500000000000      0.124400000000000
C       4.796400000000000      0.760900000000000     -0.370300000000000
C      -1.931700000000000      1.790900000000000      0.015000000000000
C       0.154400000000000     -1.359100000000000     -0.585400000000000
C       2.730200000000000      2.191200000000000     -0.428000000000000
C       4.155500000000000      2.082500000000000      0.096300000000000
C       6.363400000000000      0.712600000000000     -0.128300000000000
C       0.381400000000000      1.268500000000000     -1.985200000000000
C       1.666400000000000     -1.393600000000000     -0.482200000000000
C      -2.993100000000000     -0.501800000000000      0.408900000000000
C       4.599700000000000     -1.754500000000000     -0.599900000000000
C      -0.325100000000000     -0.324700000000000      1.645200000000000
C       6.926000000000000     -0.737800000000000     -0.268100000000000
C       6.030100000000000     -1.609100000000000     -1.134400000000000
C       4.070500000000000     -0.702200000000000      1.648500000000000
C      -4.398000000000000     -0.042600000000000     -0.040800000000000
C       6.795500000000000      1.353700000000000      1.208600000000000
C       7.031700000000000      1.561700000000000     -1.249700000000000
C      -2.831600000000000     -2.001200000000000      0.133300000000000
C      -5.508700000000000     -0.412000000000000      0.960100000000000
C      -6.946400000000000      0.020300000000000      0.541100000000000
C       8.083600000000001     -2.425900000000000      0.886400000000000
C      -7.547900000000000     -0.887700000000000     -0.616600000000000
C      -7.864800000000000      0.070000000000000      1.776500000000000
C      -9.091400000000000     -0.892100000000000     -0.603500000000000
C      -7.095200000000000     -0.409200000000000     -2.017700000000000
C      -7.071200000000000     -2.355600000000000     -0.484300000000000
C      -6.336600000000000      2.230500000000000      1.057100000000000
H       1.827500000000000      1.182900000000000      1.188700000000000
H      -2.012800000000000      0.129000000000000     -1.355100000000000
H      -0.334000000000000      3.228600000000000     -0.421700000000000
H      -0.231900000000000      2.497600000000000      1.173200000000000
H       4.668800000000000      0.760100000000000     -1.466100000000000
H      -2.465500000000000      2.019800000000000      0.944400000000000
H      -2.449800000000000      2.311000000000000     -0.798900000000000
H      -0.131700000000000     -1.415100000000000     -1.641700000000000
H      -0.207100000000000     -2.277300000000000     -0.116200000000000
H       2.309800000000000      3.157200000000000     -0.124300000000000
H       2.774700000000000      2.191800000000000     -1.522600000000000
H       4.718900000000000      2.940500000000000     -0.285200000000000
H       4.156500000000000      2.164900000000000      1.188400000000000
H       1.021700000000000      0.524500000000000     -2.468800000000000
H       0.744300000000000      2.256000000000000     -2.292300000000000
H      -0.611900000000000      1.175500000000000     -2.430700000000000
H       2.087300000000000     -2.385800000000000     -0.613800000000000
H      -2.940200000000000     -0.341900000000000      1.492700000000000
H       4.559200000000000     -2.620800000000000      0.073600000000000
H       4.003200000000000     -2.028600000000000     -1.478800000000000
H      -0.868400000000000     -1.213300000000000      1.976000000000000
H       0.700200000000000     -0.476200000000000      1.994000000000000
H      -0.727600000000000      0.524200000000000      2.206800000000000
H       7.909500000000000     -0.669900000000000     -0.753200000000000
H       6.444100000000000     -2.611500000000000     -1.283000000000000
H       5.980500000000000     -1.168900000000000     -2.139300000000000
H       5.070200000000000     -0.948700000000000      2.000500000000000
H       3.427600000000000     -1.533100000000000      1.967200000000000
H       3.742300000000000      0.182700000000000      2.203200000000000
H      -4.573800000000000     -0.518700000000000     -1.002500000000000
H      -4.397000000000000      1.031900000000000     -0.230700000000000
H       6.585300000000000      2.428400000000000      1.233900000000000
H       6.296000000000000      0.901000000000000      2.068000000000000
H       7.875700000000000      1.240400000000000      1.360100000000000
H       6.810400000000000      1.159000000000000     -2.244300000000000
H       6.694500000000000      2.602900000000000     -1.230800000000000
H       8.122299999999999      1.577300000000000     -1.135900000000000
H      -2.612000000000000     -2.200500000000000     -0.921000000000000
H      -2.063200000000000     -2.460900000000000      0.754900000000000
H      -3.746800000000000     -2.551600000000000      0.373000000000000
H      -5.244000000000000      0.033600000000000      1.928000000000000
H      -5.484000000000000     -1.480100000000000      1.193400000000000
H       8.228199999999999     -2.839000000000000      1.889100000000000
H       7.764300000000000     -3.244300000000000      0.237400000000000
H       9.044400000000000     -2.023100000000000      0.550300000000000
H      -7.373300000000000      0.504800000000000      2.654300000000000
H      -8.154999999999999     -0.940600000000000      2.084700000000000
H      -8.770500000000000      0.659900000000000      1.597500000000000
H      -9.488700000000000      0.127400000000000     -0.659300000000000
H      -9.498699999999999     -1.377000000000000      0.289400000000000
H      -9.492100000000001     -1.441400000000000     -1.464100000000000
H      -7.587300000000000     -1.005900000000000     -2.797100000000000
H      -7.385400000000000      0.630700000000000     -2.202500000000000
H      -6.030700000000000     -0.504000000000000     -2.211200000000000
H      -6.005000000000000     -2.475000000000000     -0.697700000000000
H      -7.282100000000000     -2.754800000000000      0.513800000000000
H      -7.598400000000000     -2.997600000000000     -1.201100000000000
H      -6.173700000000000      3.196000000000000      0.563300000000000
H      -7.058200000000000      2.442900000000000      1.851300000000000
H      -5.367600000000000      1.964400000000000      1.478500000000000
