96

N      -0.458400000000000     -0.555600000000000     -1.349700000000000
N       2.686900000000000      1.051200000000000     -0.211500000000000
C       0.471300000000000      0.054100000000000     -0.393400000000000
C       1.956100000000000     -0.028800000000000     -0.873400000000000
C      -1.833700000000000     -0.192600000000000     -1.018900000000000
C       0.192500000000000     -0.412100000000000      1.061100000000000
C       2.739700000000000     -1.334300000000000     -0.615700000000000
C      -2.093500000000000      1.230200000000000     -1.559200000000000
C      -2.802700000000000     -1.246800000000000     -1.602300000000000
C       0.118500000000000     -1.933200000000000      1.271800000000000
C      -0.128300000000000     -0.140300000000000     -2.710400000000000
C       2.379300000000000     -2.514900000000000     -1.519900000000000
C       3.203100000000000      0.619400000000000      1.089200000000000
C       3.739000000000000      1.585800000000000     -1.084000000000000
C       0.912000000000000     -2.410100000000000      2.489900000000000
C      -3.430000000000000      1.840700000000000     -1.111600000000000
C      -3.500000000000000     -2.134700000000000     -0.555400000000000
C       2.956300000000000     -3.856700000000000     -1.038000000000000
C       3.552800000000000      1.800800000000000      2.008900000000000
C       3.321000000000000      2.930700000000000     -1.685200000000000
C       1.309300000000000     -3.892800000000000      2.421100000000000
C       2.124600000000000     -4.555100000000000      0.052600000000000
C       2.504000000000000     -4.180100000000000      1.492900000000000
C       2.346200000000000      2.676000000000000      2.370600000000000
C       3.272500000000000      4.074000000000000     -0.665200000000000
C      -3.424300000000000      2.284600000000000      0.354400000000000
C      -4.745000000000000     -1.492600000000000      0.075800000000000
C      -1.044900000000000     -0.803600000000000     -3.724300000000000
C       2.315400000000000      4.065400000000000      1.723600000000000
C       2.019700000000000      4.090500000000000      0.220300000000000
C      -4.814900000000000      2.551100000000000      0.936000000000000
C      -4.460200000000000     -0.777800000000000      1.398100000000000
C      -5.834400000000000      1.402300000000000      0.916100000000000
C      -5.549900000000000      0.205400000000000      1.835400000000000
H       0.266200000000000      1.132000000000000     -0.366400000000000
H       2.037000000000000      0.210000000000000     -1.930300000000000
H      -2.014900000000000     -0.191300000000000      0.044100000000000
H      -0.763500000000000     -0.001000000000000      1.406900000000000
H       0.828000000000000      0.064300000000000      1.795900000000000
H       2.628700000000000     -1.663800000000000      0.412400000000000
H       3.815600000000000     -1.178000000000000     -0.776500000000000
H      -2.146100000000000      1.267600000000000     -2.650400000000000
H      -1.320100000000000      1.946500000000000     -1.262500000000000
H      -3.554100000000000     -0.809500000000000     -2.268200000000000
H      -2.267100000000000     -2.007700000000000     -2.170200000000000
H       0.435500000000000     -2.454000000000000      0.375100000000000
H      -0.928100000000000     -2.223000000000000      1.418600000000000
H      -0.034300000000000      0.938900000000000     -2.879000000000000
H       0.825400000000000     -0.579900000000000     -3.015200000000000
H       2.781000000000000     -2.305900000000000     -2.519800000000000
H       1.298200000000000     -2.615300000000000     -1.645600000000000
H       4.146600000000000      0.068300000000000      0.960800000000000
H       2.592500000000000     -0.046200000000000      1.679200000000000
H       4.008500000000000      0.897700000000000     -1.896200000000000
H       4.680300000000000      1.740900000000000     -0.541400000000000
H       0.293600000000000     -2.252500000000000      3.382600000000000
H       1.817900000000000     -1.817000000000000      2.642600000000000
H      -4.237100000000000      1.136500000000000     -1.316000000000000
H      -3.638900000000000      2.722900000000000     -1.730800000000000
H      -3.845800000000000     -3.035100000000000     -1.081900000000000
H      -2.799500000000000     -2.483700000000000      0.208500000000000
H       4.001500000000000     -3.746400000000000     -0.726800000000000
H       2.964400000000000     -4.525500000000000     -1.909000000000000
H       4.367800000000000      2.405400000000000      1.598300000000000
H       3.950600000000000      1.372500000000000      2.939100000000000
H       2.362300000000000      2.842600000000000     -2.211100000000000
H       4.065200000000000      3.195300000000000     -2.447500000000000
H       0.446600000000000     -4.516800000000000      2.161000000000000
H       1.608700000000000     -4.187400000000000      3.435600000000000
H       2.300400000000000     -5.634800000000000     -0.050900000000000
H       1.055500000000000     -4.425200000000000     -0.141800000000000
H       3.036400000000000     -5.044500000000000      1.913800000000000
H       3.227500000000000     -3.360400000000000      1.532400000000000
H       2.377600000000000      2.838800000000000      3.456400000000000
H       1.399700000000000      2.162000000000000      2.178400000000000
H       3.284100000000000      5.012800000000000     -1.235200000000000
H       4.191900000000000      4.081400000000000     -0.069400000000000
H      -2.846400000000000      3.216400000000000      0.421800000000000
H      -2.887000000000000      1.584200000000000      0.993300000000000
H      -5.474600000000000     -2.286300000000000      0.284200000000000
H      -5.225100000000000     -0.835900000000000     -0.653400000000000
H      -2.070100000000000     -0.442000000000000     -3.782500000000000
H      -0.640400000000000     -0.573400000000000     -4.721000000000000
H      -1.004300000000000     -1.897100000000000     -3.672900000000000
H       3.238400000000000      4.611900000000000      1.951000000000000
H       1.509700000000000      4.622300000000000      2.221000000000000
H       1.299800000000000      3.312900000000000     -0.051500000000000
H       1.503900000000000      5.039100000000000      0.016000000000000
H      -4.695700000000000      2.896700000000000      1.970600000000000
H      -5.253800000000000      3.394100000000000      0.386400000000000
H      -4.368700000000000     -1.545600000000000      2.178400000000000
H      -3.497500000000000     -0.279300000000000      1.394500000000000
H      -6.034300000000000      1.077200000000000     -0.107800000000000
H      -6.784600000000000      1.834600000000000      1.260300000000000
H      -5.301900000000000      0.579700000000000      2.836500000000000
H      -6.484300000000000     -0.360100000000000      1.947200000000000
