96

O       6.779500000000000     -0.973200000000000     -1.792700000000000
N      -6.353900000000000     -2.415800000000000     -0.090600000000000
C       0.030800000000000      0.347900000000000      1.072700000000000
C       1.231900000000000     -0.552500000000000      0.436600000000000
C      -0.599000000000000      1.235500000000000     -0.081300000000000
C       2.298100000000000      0.418500000000000     -0.215100000000000
C      -1.835100000000000      2.007600000000000      0.426900000000000
C       3.696600000000000     -0.211400000000000     -0.650000000000000
C      -2.927700000000000      1.037200000000000      0.937300000000000
C       4.252100000000000     -1.052300000000000      0.552300000000000
C      -1.089500000000000     -0.529000000000000      1.740000000000000
C       0.456400000000000      2.124300000000000     -0.752500000000000
C       1.934000000000000     -1.413300000000000      1.522200000000000
C       1.645600000000000      1.321000000000000     -1.287700000000000
C      -2.372800000000000      0.238400000000000      2.123400000000000
C      -2.613900000000000      2.942100000000000     -0.517800000000000
C       3.227400000000000     -2.088100000000000      1.055500000000000
C      -4.031300000000000      2.039200000000000      1.301300000000000
C       5.713500000000000     -1.628900000000000      0.369200000000000
C       4.698200000000000      0.965700000000000     -0.936400000000000
C       0.569400000000000      1.265300000000000      2.225000000000000
C       0.645500000000000     -1.546000000000000     -0.611500000000000
C      -3.999600000000000      3.073500000000000      0.161300000000000
C      -3.488600000000000      0.059300000000000     -0.127200000000000
C       3.576900000000000     -1.040000000000000     -1.950000000000000
C       6.624800000000000     -0.632900000000000     -0.417700000000000
C       6.104100000000000      0.798200000000000     -0.348800000000000
C      -1.990100000000000      4.284400000000000     -0.726300000000000
C       5.739100000000000     -3.036500000000000     -0.263000000000000
C       6.337900000000000     -1.780000000000000      1.787500000000000
C      -4.668800000000000     -0.714600000000000      0.432900000000000
C      -1.680700000000000      4.656700000000000     -2.146000000000000
C      -5.233000000000000     -1.655400000000000     -0.630400000000000
C      -1.722000000000000      5.108400000000000      0.297400000000000
C      -6.906600000000000     -3.362800000000000     -1.080900000000000
C      -6.338300000000000     -4.747000000000000     -1.193500000000000
C      -7.710900000000000     -4.543600000000000     -0.622000000000000
H      -0.963500000000000      0.571100000000000     -0.870600000000000
H       2.595100000000000      1.102600000000000      0.589300000000000
H      -1.505300000000000      2.619200000000000      1.274800000000000
H       4.334700000000000     -0.327300000000000      1.379200000000000
H      -0.695000000000000     -1.006700000000000      2.645700000000000
H      -1.389100000000000     -1.349800000000000      1.086900000000000
H       0.808100000000000      2.903200000000000     -0.067400000000000
H       0.024200000000000      2.629100000000000     -1.613200000000000
H       1.250800000000000     -2.186800000000000      1.893700000000000
H       2.200700000000000     -0.801700000000000      2.388600000000000
H       1.303700000000000      0.725900000000000     -2.140500000000000
H       2.373400000000000      2.032400000000000     -1.692300000000000
H      -2.139300000000000      0.925400000000000      2.946400000000000
H      -3.100000000000000     -0.451200000000000      2.558900000000000
H      -2.743600000000000      2.450700000000000     -1.490400000000000
H       3.633900000000000     -2.634900000000000      1.913400000000000
H       3.013900000000000     -2.843900000000000      0.294900000000000
H      -3.756300000000000      2.556600000000000      2.231400000000000
H      -5.035900000000000      1.658300000000000      1.476800000000000
H       4.314700000000000      1.911900000000000     -0.534300000000000
H       4.781200000000000      1.131400000000000     -2.018700000000000
H       1.351600000000000      1.955200000000000      1.904900000000000
H       0.966600000000000      0.678400000000000      3.058000000000000
H      -0.208200000000000      1.890500000000000      2.669700000000000
H       0.176800000000000     -1.052500000000000     -1.464400000000000
H      -0.098600000000000     -2.213800000000000     -0.170100000000000
H       1.392200000000000     -2.221100000000000     -1.021600000000000
H      -4.780800000000000      2.838100000000000     -0.572400000000000
H      -4.230000000000000      4.071900000000000      0.548400000000000
H      -3.818700000000000      0.592600000000000     -1.025400000000000
H      -2.725700000000000     -0.645500000000000     -0.472000000000000
H       3.207300000000000     -2.050700000000000     -1.783700000000000
H       4.537500000000000     -1.160900000000000     -2.453500000000000
H       2.926900000000000     -0.561900000000000     -2.686900000000000
H       7.638700000000000     -0.655000000000000      0.000500000000000
H       6.781500000000000      1.472700000000000     -0.887400000000000
H       6.101300000000000      1.134800000000000      0.695400000000000
H       5.237500000000000     -3.777600000000000      0.368300000000000
H       5.261700000000000     -3.061000000000000     -1.245000000000000
H       6.771700000000000     -3.381500000000000     -0.395300000000000
H       6.384400000000000     -0.817400000000000      2.309100000000000
H       5.769000000000000     -2.472600000000000      2.415400000000000
H       7.360800000000000     -2.170600000000000      1.727300000000000
H      -4.379900000000000     -1.328100000000000      1.290800000000000
H      -5.488300000000000     -0.067800000000000      0.750700000000000
H       7.390600000000000     -0.330800000000000     -2.191900000000000
H      -1.025400000000000      5.532400000000000     -2.204100000000000
H      -2.611200000000000      4.901400000000000     -2.670100000000000
H      -1.198900000000000      3.848800000000000     -2.699900000000000
H      -5.559600000000000     -1.075300000000000     -1.502200000000000
H      -4.445500000000000     -2.342800000000000     -0.962700000000000
H      -1.268600000000000      6.079800000000000      0.127800000000000
H      -1.949700000000000      4.849700000000000      1.325600000000000
H      -7.084500000000000     -1.775400000000000      0.218800000000000
H      -7.244300000000000     -2.894000000000000     -2.001000000000000
H      -6.262400000000000     -5.181800000000000     -2.182700000000000
H      -5.549500000000000     -5.043500000000000     -0.512900000000000
H      -7.841300000000000     -4.702700000000000      0.441500000000000
H      -8.558100000000000     -4.843700000000000     -1.226500000000000
