96

O      -6.933400000000000      0.224300000000000      1.247900000000000
N       4.291800000000000     -2.509100000000000      0.738100000000000
C       0.246400000000000     -0.147500000000000     -0.704900000000000
C      -1.134300000000000     -0.643100000000000      0.006600000000000
C       0.829400000000000      1.073900000000000      0.122300000000000
C      -2.141600000000000      0.576600000000000      0.055000000000000
C       2.211100000000000      1.499000000000000     -0.418500000000000
C      -3.654700000000000      0.264700000000000      0.448100000000000
C       3.225900000000000      0.333400000000000     -0.333800000000000
C      -4.152400000000000     -0.937900000000000     -0.427900000000000
C       1.321000000000000     -1.290600000000000     -0.793500000000000
C      -0.180400000000000      2.224900000000000      0.221300000000000
C      -1.523600000000000      1.778300000000000      0.806400000000000
C      -1.793900000000000     -1.808100000000000     -0.780800000000000
C       2.732100000000000     -0.824300000000000     -1.211000000000000
C       2.974100000000000      2.671600000000000      0.225900000000000
C      -3.213800000000000     -2.156100000000000     -0.323900000000000
C       4.488300000000000      1.034800000000000     -0.852000000000000
C      -5.687600000000000     -1.294700000000000     -0.295000000000000
C      -0.013000000000000      0.282900000000000     -2.190400000000000
C      -4.524000000000000      1.526600000000000      0.097400000000000
C      -0.824200000000000     -1.187100000000000      1.433800000000000
C       4.441900000000000      2.431400000000000     -0.205300000000000
C       3.510900000000000     -0.188300000000000      1.098200000000000
C      -3.815000000000000      0.002500000000000      1.963500000000000
C      -6.557200000000000     -0.010100000000000     -0.106300000000000
C      -5.850600000000000      1.241000000000000     -0.615700000000000
C       2.507900000000000      4.028600000000000     -0.192900000000000
C       4.685900000000000     -1.161200000000000      1.147700000000000
C      -5.978300000000000     -2.338900000000000      0.803600000000000
C      -6.135200000000000     -1.943300000000000     -1.637900000000000
C       2.066100000000000      4.945500000000000      0.908900000000000
C       5.239100000000000     -1.221100000000000      2.570800000000000
C       2.485300000000000      4.404600000000000     -1.480100000000000
C       5.457800000000000     -3.328600000000000      0.355100000000000
C       6.086000000000000     -3.153800000000000     -0.996300000000000
C       5.312000000000000     -4.400900000000000     -0.684500000000000
H       0.998300000000000      0.746100000000000      1.152600000000000
H      -2.239500000000000      0.911600000000000     -0.984800000000000
H       2.077200000000000      1.753200000000000     -1.476400000000000
H      -4.031200000000000     -0.589000000000000     -1.467000000000000
H       0.990000000000000     -2.053900000000000     -1.509000000000000
H       1.420000000000000     -1.811300000000000      0.159500000000000
H      -0.335300000000000      2.697200000000000     -0.754700000000000
H       0.197100000000000      2.994000000000000      0.890700000000000
H      -1.376500000000000      1.540700000000000      1.864700000000000
H      -2.199600000000000      2.639700000000000      0.784600000000000
H      -1.174100000000000     -2.710500000000000     -0.713200000000000
H      -1.863000000000000     -1.565700000000000     -1.845000000000000
H       2.686700000000000     -0.483400000000000     -2.253400000000000
H       3.416900000000000     -1.668100000000000     -1.262400000000000
H       2.909400000000000      2.593500000000000      1.318500000000000
H      -3.571900000000000     -2.964600000000000     -0.970700000000000
H      -3.201600000000000     -2.568200000000000      0.688600000000000
H       4.400400000000000      1.169100000000000     -1.939800000000000
H       5.456500000000000      0.560100000000000     -0.710800000000000
H      -0.736900000000000      1.092900000000000     -2.290500000000000
H      -0.367500000000000     -0.554300000000000     -2.798500000000000
H       0.889000000000000      0.633600000000000     -2.696700000000000
H      -3.971600000000000      2.212000000000000     -0.557600000000000
H      -4.725800000000000      2.106600000000000      1.007800000000000
H      -0.410500000000000     -0.434000000000000      2.106400000000000
H      -0.122500000000000     -2.024600000000000      1.408800000000000
H      -1.699600000000000     -1.594400000000000      1.933000000000000
H       5.082800000000000      2.446800000000000      0.685300000000000
H       4.848700000000000      3.181400000000000     -0.892200000000000
H       2.627300000000000     -0.653900000000000      1.549300000000000
H       3.738600000000000      0.653500000000000      1.761700000000000
H      -3.561500000000000     -1.016100000000000      2.253300000000000
H      -4.840600000000000      0.154900000000000      2.303600000000000
H      -3.210300000000000      0.683600000000000      2.567400000000000
H      -7.501700000000000     -0.123200000000000     -0.652400000000000
H      -6.499300000000000      2.117300000000000     -0.493000000000000
H      -5.667300000000000      1.142600000000000     -1.692900000000000
H       5.520800000000000     -0.830300000000000      0.533400000000000
H      -5.498700000000000     -3.300300000000000      0.591200000000000
H      -5.640900000000000     -2.011400000000000      1.789300000000000
H      -7.055200000000000     -2.532500000000000      0.876700000000000
H      -5.987600000000000     -1.259700000000000     -2.481400000000000
H      -5.583700000000000     -2.863500000000000     -1.853800000000000
H      -7.199100000000000     -2.207600000000000     -1.611600000000000
H      -7.502900000000000      1.012200000000000      1.267100000000000
H       3.755000000000000     -2.966100000000000      1.474000000000000
H       1.528600000000000      5.817900000000000      0.522000000000000
H       2.943700000000000      5.309800000000000      1.454300000000000
H       1.414600000000000      4.453400000000000      1.633500000000000
H       4.487500000000000     -1.585300000000000      3.281000000000000
H       5.554600000000000     -0.225700000000000      2.904300000000000
H       6.117600000000000     -1.869700000000000      2.648100000000000
H       2.143400000000000      5.394100000000000     -1.766500000000000
H       2.810200000000000      3.750400000000000     -2.281600000000000
H       6.123000000000000     -3.576200000000000      1.176800000000000
H       5.648900000000000     -2.452300000000000     -1.695700000000000
H       7.164500000000000     -3.232400000000000     -1.063200000000000
H       5.869900000000000     -5.319000000000000     -0.546100000000000
H       4.350600000000000     -4.529500000000000     -1.167000000000000
