96

N       6.305900000000000      0.048300000000000      1.865900000000000
N      -6.324900000000000     -1.005200000000000      0.179700000000000
C       2.777300000000000     -0.215000000000000     -0.657300000000000
C       3.670200000000000     -0.114500000000000      0.592100000000000
C       1.453400000000000      0.483400000000000     -0.352500000000000
C       4.549800000000000     -1.402500000000000      0.826400000000000
C       4.457000000000000      1.249400000000000      0.679600000000000
C      -1.479100000000000      0.795400000000000     -0.721900000000000
C      -2.802300000000000      1.494300000000000     -0.416000000000000
C       0.456700000000000     -0.496900000000000      0.278900000000000
C       0.867700000000000      1.112700000000000     -1.622800000000000
C      -0.893100000000000      0.165900000000000      0.548200000000000
C      -0.482200000000000      1.775300000000000     -1.354000000000000
C       3.462600000000000      0.520000000000000     -1.847600000000000
C       2.545000000000000     -1.728800000000000     -0.945200000000000
C      -3.791200000000000      0.490000000000000      0.175500000000000
C       5.511300000000000     -1.169100000000000      2.017200000000000
C       5.427300000000000      1.216200000000000      1.885700000000000
C      -4.046900000000000     -0.659700000000000     -0.804400000000000
C      -5.124700000000000      1.170300000000000      0.501500000000000
C       3.637000000000000     -2.595900000000000      1.206600000000000
C       5.359800000000000     -1.845100000000000     -0.410400000000000
C       5.239600000000000      1.608100000000000     -0.601300000000000
C       3.462200000000000      2.411200000000000      0.928800000000000
C      -5.092500000000000     -1.669800000000000     -0.286600000000000
C      -6.185800000000000      0.186700000000000      1.038800000000000
C      -3.376000000000000      2.083600000000000     -1.715100000000000
C      -2.553900000000000      2.631100000000000      0.589300000000000
C       4.807000000000000     -0.036200000000000     -2.301100000000000
C       1.632800000000000     -2.039800000000000     -2.125800000000000
C      -4.495800000000000     -2.592700000000000      0.790800000000000
C      -5.507300000000000     -2.579900000000000     -1.466800000000000
C      -7.557700000000000      0.901200000000000      1.019100000000000
C      -5.909100000000000     -0.191900000000000      2.504600000000000
H       3.013600000000000     -0.100300000000000      1.476900000000000
H       1.531100000000000      1.284100000000000      0.373700000000000
H      -1.615000000000000      0.004900000000000     -1.468800000000000
H       0.840800000000000     -0.853900000000000      1.242300000000000
H       0.189800000000000     -1.377100000000000     -0.297200000000000
H       0.726900000000000      0.402700000000000     -2.439600000000000
H       1.475500000000000      1.935300000000000     -2.008500000000000
H      -1.542000000000000     -0.612300000000000      0.960100000000000
H      -0.738800000000000      0.909900000000000      1.336400000000000
H      -0.276600000000000      2.639800000000000     -0.718600000000000
H      -0.847500000000000      2.156300000000000     -2.313000000000000
H       2.856500000000000      0.300500000000000     -2.740300000000000
H       3.344000000000000      1.599700000000000     -1.837500000000000
H       3.362000000000000     -2.350600000000000     -1.234200000000000
H       1.995200000000000     -2.218400000000000     -0.147800000000000
H      -3.411000000000000      0.093900000000000      1.119900000000000
H       6.203000000000000     -2.014600000000000      2.119900000000000
H       4.953500000000000     -1.122600000000000      2.962300000000000
H       4.864700000000000      1.229800000000000      2.829100000000000
H       6.054200000000000      2.115900000000000      1.910000000000000
H      -4.411300000000000     -0.271300000000000     -1.762100000000000
H      -3.133000000000000     -1.222600000000000     -1.017200000000000
H      -4.994100000000000      1.963600000000000      1.245500000000000
H      -5.560500000000000      1.637200000000000     -0.385200000000000
H       4.139400000000000     -3.167300000000000      2.003800000000000
H       2.700300000000000     -2.299600000000000      1.690800000000000
H       3.504600000000000     -3.387100000000000      0.461700000000000
H       6.299800000000000     -1.290300000000000     -0.482800000000000
H       5.772300000000000     -2.830500000000000     -0.120800000000000
H       5.007100000000000     -2.114100000000000     -1.390000000000000
H       6.182400000000000      1.069900000000000     -0.717300000000000
H       5.769000000000000      2.514700000000000     -0.224800000000000
H       4.888900000000000      2.202600000000000     -1.444600000000000
H       2.903100000000000      2.712500000000000      0.040300000000000
H       4.014800000000000      3.313300000000000      1.225700000000000
H       2.782300000000000      2.198500000000000      1.760900000000000
H       6.852300000000000      0.023400000000000      1.009200000000000
H      -4.379500000000000      2.500800000000000     -1.625100000000000
H      -2.779100000000000      2.941500000000000     -2.048300000000000
H      -3.373500000000000      1.370800000000000     -2.545800000000000
H      -3.441300000000000      3.269400000000000      0.679400000000000
H      -1.767200000000000      3.330300000000000      0.303600000000000
H      -2.337400000000000      2.266400000000000      1.598400000000000
H       5.122200000000000      0.639300000000000     -3.116700000000000
H       4.614000000000000     -0.952800000000000     -2.877600000000000
H       5.730900000000000     -0.182500000000000     -1.791900000000000
H       1.480200000000000     -3.125700000000000     -2.183600000000000
H       0.636300000000000     -1.605600000000000     -2.130400000000000
H       2.110300000000000     -1.755000000000000     -3.069700000000000
H      -6.866100000000000     -0.736100000000000     -0.643600000000000
H      -3.740300000000000     -3.259100000000000      0.356700000000000
H      -3.995700000000000     -2.051500000000000      1.594700000000000
H      -5.267100000000000     -3.229400000000000      1.239800000000000
H      -5.955300000000000     -2.003900000000000     -2.285600000000000
H      -4.641800000000000     -3.111700000000000     -1.879100000000000
H      -6.239700000000000     -3.333100000000000     -1.152000000000000
H      -7.539000000000000      1.809500000000000      1.632800000000000
H      -7.846000000000000      1.200400000000000      0.004100000000000
H      -8.351000000000001      0.253200000000000      1.410900000000000
H      -6.599500000000000     -0.970600000000000      2.849800000000000
H      -4.892100000000000     -0.544900000000000      2.677500000000000
H      -6.046900000000000      0.675200000000000      3.162200000000000
