97

N      -3.077700000000000     -1.060400000000000      1.220000000000000
N       4.716400000000000     -0.746500000000000      0.569100000000000
C      -0.477600000000000      0.499300000000000     -0.463500000000000
C      -0.776900000000000     -0.862600000000000     -1.404000000000000
C      -1.672100000000000      1.629500000000000     -0.202400000000000
C       0.140400000000000      0.052300000000000      0.894500000000000
C       0.721700000000000      1.283400000000000     -1.129900000000000
C      -1.155900000000000     -2.197400000000000     -0.611900000000000
C      -3.142500000000000      1.196700000000000      0.164500000000000
C       1.406900000000000     -0.812900000000000      0.775100000000000
C       1.058700000000000      2.603700000000000     -0.436100000000000
C      -2.585800000000000     -2.802100000000000     -0.444900000000000
C      -3.573500000000000      0.305800000000000      1.364900000000000
C       0.567800000000000     -1.302700000000000     -2.116700000000000
C      -1.705400000000000     -0.575100000000000     -2.590300000000000
C      -1.878100000000000      2.523600000000000     -1.480900000000000
C      -1.231100000000000      2.676100000000000      0.877700000000000
C      -3.616300000000000     -1.799800000000000      0.084400000000000
C       2.417800000000000     -0.357000000000000     -0.322700000000000
C       0.139400000000000      3.787000000000000     -0.843100000000000
C       2.084700000000000     -0.806500000000000      2.161500000000000
C       1.011400000000000     -2.275400000000000      0.461700000000000
C       2.519200000000000      3.016100000000000     -0.718000000000000
C       0.935200000000000      2.334300000000000      1.078900000000000
C      -3.113300000000000     -3.415300000000000     -1.758800000000000
C      -2.463200000000000     -3.978400000000000      0.564800000000000
C      -3.085400000000000      0.836800000000000      2.723500000000000
C      -5.124400000000000      0.306900000000000      1.439300000000000
C       3.750900000000000     -1.124400000000000     -0.458900000000000
C       0.429300000000000      5.116600000000000     -0.157400000000000
C       4.370300000000000     -0.860100000000000     -1.834900000000000
C       5.706700000000000     -1.795800000000000      0.759900000000000
C       6.702400000000000     -1.396100000000000      1.834700000000000
H       0.115700000000000      0.649200000000000      1.795900000000000
H      -0.619400000000000     -0.588300000000000      1.343000000000000
H       1.556700000000000      1.000500000000000     -1.747400000000000
H       0.247100000000000      1.580100000000000     -2.071400000000000
H      -1.012900000000000     -2.035100000000000      0.426500000000000
H      -0.632300000000000     -3.053500000000000     -1.046500000000000
H      -3.731700000000000      2.122500000000000      0.274400000000000
H      -3.591600000000000      0.772500000000000     -0.736800000000000
H       0.910000000000000     -0.545900000000000     -2.835700000000000
H       0.226600000000000     -2.062900000000000     -2.848600000000000
H       1.398800000000000     -1.889600000000000     -1.772300000000000
H      -1.338000000000000      0.265800000000000     -3.187800000000000
H      -2.721400000000000     -0.339900000000000     -2.285400000000000
H      -1.771000000000000     -1.424500000000000     -3.278700000000000
H      -2.570200000000000      1.945900000000000     -2.116400000000000
H      -2.524300000000000      3.400700000000000     -1.304100000000000
H      -1.144000000000000      2.697600000000000     -2.262000000000000
H      -0.755000000000000      3.631200000000000      1.015500000000000
H      -2.195100000000000      3.226000000000000      0.976600000000000
H      -1.309400000000000      2.193300000000000      1.853500000000000
H      -3.934000000000000     -1.159900000000000     -0.737800000000000
H      -4.528100000000000     -2.324400000000000      0.399800000000000
H       2.172600000000000     -0.401000000000000     -1.335900000000000
H       2.758900000000000      0.625300000000000     -0.048300000000000
H      -3.233300000000000     -1.593100000000000      2.075300000000000
H      -0.900900000000000      3.959700000000000     -0.765000000000000
H       0.364800000000000      3.981200000000000     -1.905600000000000
H       2.862600000000000     -1.571600000000000      2.255800000000000
H       1.355100000000000     -1.024700000000000      2.951800000000000
H       2.556200000000000      0.147700000000000      2.409700000000000
H       0.368100000000000     -2.718600000000000      1.238400000000000
H       1.065200000000000     -2.844100000000000     -0.450200000000000
H       1.911800000000000     -2.809600000000000      0.833800000000000
H       2.693500000000000      3.083600000000000     -1.798700000000000
H       3.287900000000000      2.363600000000000     -0.306800000000000
H       2.763700000000000      3.998400000000000     -0.300800000000000
H       0.383600000000000      2.490500000000000      2.009100000000000
H       1.742500000000000      1.655800000000000      1.360800000000000
H       1.515000000000000      3.233200000000000      1.398400000000000
H      -3.396900000000000     -2.655500000000000     -2.490200000000000
H      -2.368700000000000     -4.071800000000000     -2.222100000000000
H      -4.012100000000000     -4.016700000000000     -1.576000000000000
H      -2.096400000000000     -3.649000000000000      1.543200000000000
H      -1.771800000000000     -4.744700000000000      0.195200000000000
H      -3.433100000000000     -4.463000000000000      0.727200000000000
H      -3.602900000000000      0.328800000000000      3.548200000000000
H      -3.291600000000000      1.906400000000000      2.837100000000000
H      -2.022400000000000      0.647500000000000      2.893100000000000
H      -5.488900000000000     -0.383300000000000      2.209700000000000
H      -5.586600000000000      0.018600000000000      0.488800000000000
H      -5.502000000000000      1.305400000000000      1.690300000000000
H       3.543500000000000     -2.198800000000000     -0.409000000000000
H       1.339800000000000      5.568500000000000     -0.567600000000000
H       0.556500000000000      5.084400000000000      0.927700000000000
H      -0.363000000000000      5.849600000000000     -0.365100000000000
H       4.572500000000000      0.207000000000000     -1.984500000000000
H       3.701700000000000     -1.187300000000000     -2.639500000000000
H       5.309000000000000     -1.402300000000000     -1.983900000000000
H       5.168600000000000      0.135800000000000      0.333100000000000
H       5.218300000000000     -2.725900000000000      1.073700000000000
H       6.266000000000000     -2.004000000000000     -0.157500000000000
H       7.247200000000000     -0.488500000000000      1.553500000000000
H       7.435100000000000     -2.195000000000000      1.987900000000000
H       6.200200000000000     -1.212300000000000      2.790700000000000
