97

O      -4.416100000000000      2.689400000000000      0.507700000000000
O      -6.078700000000000      2.421200000000000     -1.074700000000000
C       2.186400000000000     -2.475800000000000     -3.283400000000000
C       2.909200000000000     -1.394600000000000     -2.472000000000000
C       0.675000000000000     -2.579000000000000     -3.061000000000000
C       2.382700000000000      0.018600000000000     -2.739700000000000
C       0.292100000000000     -2.964800000000000     -1.630600000000000
C       3.162300000000000      1.100100000000000     -1.984400000000000
C      -1.229000000000000     -3.045100000000000     -1.477100000000000
C       4.549700000000000      1.361800000000000     -2.576300000000000
C      -1.627500000000000     -3.493300000000000     -0.069500000000000
C       5.302100000000000      2.497900000000000     -1.874200000000000
C      -3.143700000000000     -3.545800000000000      0.146400000000000
C       5.606200000000000      2.269400000000000     -0.388900000000000
C       6.467400000000000      1.030100000000000     -0.135100000000000
C      -3.805700000000000     -2.166400000000000      0.091400000000000
C       6.899400000000000      0.877600000000000      1.326400000000000
C      -5.303300000000000     -2.244000000000000      0.402500000000000
C      -2.385100000000000      2.504800000000000     -0.862100000000000
C      -1.621200000000000      1.934200000000000      0.352000000000000
C       5.764000000000000      0.740700000000000      2.345600000000000
C      -6.010800000000000     -0.893800000000000      0.240800000000000
C      -0.397200000000000      1.095400000000000     -0.027000000000000
C       0.487400000000000      0.720700000000000      1.168700000000000
C       4.817000000000000     -0.426000000000000      2.053600000000000
C      -5.673900000000000      0.100300000000000      1.357300000000000
C      -0.266500000000000     -0.031500000000000      2.270200000000000
C      -3.548000000000000      3.400900000000000     -0.395500000000000
C       3.820400000000000     -0.631500000000000      3.198400000000000
C      -6.321200000000000      1.465000000000000      1.130100000000000
C      -2.893900000000000      1.397800000000000     -1.788900000000000
C       0.649400000000000     -0.549600000000000      3.382500000000000
C       2.854800000000000     -1.736400000000000      2.880100000000000
C       1.515000000000000     -1.694600000000000      2.941700000000000
C      -5.618500000000000      2.246300000000000      0.045300000000000
H       2.646700000000000     -3.445900000000000     -3.058200000000000
H       2.365300000000000     -2.291000000000000     -4.350100000000000
H       2.840600000000000     -1.618400000000000     -1.401200000000000
H       3.973300000000000     -1.447700000000000     -2.728300000000000
H       0.282800000000000     -3.339800000000000     -3.748000000000000
H       0.187200000000000     -1.638300000000000     -3.340300000000000
H       1.337100000000000      0.078600000000000     -2.418800000000000
H       2.398200000000000      0.230200000000000     -3.815400000000000
H       0.681200000000000     -2.227000000000000     -0.920300000000000
H       0.743900000000000     -3.931400000000000     -1.378100000000000
H       3.237700000000000      0.816200000000000     -0.929600000000000
H       2.584300000000000      2.031700000000000     -2.022300000000000
H      -1.641000000000000     -3.747200000000000     -2.211800000000000
H      -1.652000000000000     -2.059400000000000     -1.698400000000000
H       4.437700000000000      1.632100000000000     -3.633900000000000
H       5.156700000000000      0.451500000000000     -2.557600000000000
H      -1.175400000000000     -2.829700000000000      0.675200000000000
H      -1.217400000000000     -4.494300000000000      0.113700000000000
H       4.722300000000000      3.424100000000000     -1.972400000000000
H       6.246400000000000      2.668300000000000     -2.406400000000000
H      -3.336000000000000     -3.995800000000000      1.128200000000000
H      -3.598900000000000     -4.207200000000000     -0.600700000000000
H       4.668000000000000      2.205300000000000      0.171600000000000
H       6.132500000000000      3.153900000000000     -0.008900000000000
H       5.939100000000000      0.125000000000000     -0.452300000000000
H       7.372100000000000      1.091700000000000     -0.752800000000000
H      -3.678800000000000     -1.735500000000000     -0.906900000000000
H      -3.305600000000000     -1.499100000000000      0.801600000000000
H       7.518400000000000      1.738300000000000      1.608500000000000
H       7.547700000000000     -0.004500000000000      1.402300000000000
H      -5.459000000000000     -2.629900000000000      1.416800000000000
H      -5.770200000000000     -2.959500000000000     -0.285700000000000
H      -1.698700000000000      3.134600000000000     -1.442600000000000
H      -2.301800000000000      1.320000000000000      0.952900000000000
H      -1.298400000000000      2.768400000000000      0.987600000000000
H       5.192900000000000      1.675100000000000      2.397200000000000
H       6.214700000000000      0.601200000000000      3.336200000000000
H      -7.094100000000000     -1.068200000000000      0.244100000000000
H      -5.765000000000000     -0.469700000000000     -0.739500000000000
H       0.214500000000000      1.651000000000000     -0.747200000000000
H      -0.718700000000000      0.172800000000000     -0.523500000000000
H       0.933900000000000      1.629400000000000      1.590400000000000
H       1.315300000000000      0.108500000000000      0.793000000000000
H       5.399800000000000     -1.343300000000000      1.902100000000000
H       4.266300000000000     -0.235600000000000      1.125100000000000
H      -6.035300000000000     -0.306100000000000      2.309700000000000
H      -4.589600000000000      0.216600000000000      1.452400000000000
H      -0.832600000000000     -0.862500000000000      1.835500000000000
H      -0.999200000000000      0.642100000000000      2.730400000000000
H      -3.151900000000000      4.257500000000000      0.161300000000000
H      -4.101300000000000      3.807100000000000     -1.250100000000000
H       3.306700000000000      0.313400000000000      3.397000000000000
H       4.364200000000000     -0.900000000000000      4.111900000000000
H      -6.288200000000000      2.061200000000000      2.049800000000000
H      -7.379300000000000      1.363500000000000      0.863700000000000
H      -3.509700000000000      1.815700000000000     -2.592400000000000
H      -2.063600000000000      0.865900000000000     -2.264000000000000
H      -3.496200000000000      0.665800000000000     -1.244400000000000
H       0.020900000000000     -0.914600000000000      4.204700000000000
H       1.230500000000000      0.279400000000000      3.796300000000000
H       3.303900000000000     -2.677400000000000      2.565700000000000
H       0.979400000000000     -2.602200000000000      2.666500000000000
