97

O      -7.274500000000000     -5.354400000000000     -0.286400000000000
N       1.262500000000000      4.385200000000000     -0.316600000000000
C      -2.491000000000000      1.928500000000000     -0.136000000000000
C      -2.092100000000000      0.685800000000000      0.687200000000000
C      -3.828600000000000     -0.741600000000000     -0.524900000000000
C      -5.119900000000000     -1.640800000000000     -0.362000000000000
C      -1.159200000000000      2.716900000000000     -0.084300000000000
C      -3.214600000000000     -0.313200000000000      0.816400000000000
C      -2.879400000000000      1.453200000000000     -1.545900000000000
C      -4.045400000000000      0.453000000000000     -1.499100000000000
C      -4.829600000000000     -2.678900000000000      0.765500000000000
C      -1.393100000000000      1.285300000000000      1.911400000000000
C      -0.672100000000000      2.532100000000000      1.369600000000000
C      -5.399200000000000     -2.408600000000000     -1.683300000000000
C      -1.220600000000000      4.177900000000000     -0.507200000000000
C      -3.653000000000000      2.732600000000000      0.498600000000000
C      -4.569800000000000     -1.984300000000000      2.110700000000000
C      -3.584400000000000     -0.861100000000000      1.987400000000000
C      -5.914900000000000     -3.755200000000000      0.902800000000000
C      -6.363400000000000     -0.778500000000000     -0.015200000000000
C      -6.484700000000000     -3.475700000000000     -1.545100000000000
C      -6.173100000000000     -4.463100000000000     -0.425600000000000
C      -0.022900000000000      4.949000000000000      0.081900000000000
C      -1.277900000000000      4.278500000000000     -2.036700000000000
C       2.360900000000000      5.101500000000000      0.315700000000000
C       3.721800000000000      4.526000000000000     -0.080000000000000
C       3.895900000000000      3.059500000000000      0.326600000000000
C       5.241700000000000      2.508000000000000     -0.152300000000000
C       5.428100000000000      1.051400000000000      0.278100000000000
C       6.774000000000000      0.458000000000000     -0.148600000000000
C       6.931000000000000     -1.020600000000000      0.217100000000000
C       8.262200000000000     -1.576500000000000     -0.295900000000000
C       8.484700000000000     -3.049200000000000      0.060500000000000
C       9.846399999999999     -3.584600000000000     -0.387900000000000
C      10.044000000000000     -5.034600000000000      0.056300000000000
C      11.410399999999999     -5.561400000000000     -0.352500000000000
H      -1.303600000000000      0.145500000000000      0.135800000000000
H      -3.054000000000000     -1.370700000000000     -0.991400000000000
H      -0.428200000000000      2.193400000000000     -0.720000000000000
H      -2.022800000000000      0.977800000000000     -2.040300000000000
H      -3.190000000000000      2.285000000000000     -2.181100000000000
H      -4.209600000000000      0.070900000000000     -2.513500000000000
H      -4.949200000000000      1.010500000000000     -1.235300000000000
H      -3.904100000000000     -3.210000000000000      0.490900000000000
H      -0.687100000000000      0.579700000000000      2.362300000000000
H      -2.109000000000000      1.578100000000000      2.688200000000000
H       0.413200000000000      2.393300000000000      1.416500000000000
H      -0.940200000000000      3.366000000000000      2.025900000000000
H      -5.691600000000000     -1.713700000000000     -2.479200000000000
H      -4.477400000000000     -2.898400000000000     -2.024200000000000
H      -2.110100000000000      4.676000000000000     -0.107300000000000
H      -3.359700000000000      3.227700000000000      1.430000000000000
H      -4.512200000000000      2.099000000000000      0.739700000000000
H      -4.014900000000000      3.507200000000000     -0.186700000000000
H      -5.498200000000000     -1.600700000000000      2.549300000000000
H      -4.169800000000000     -2.721900000000000      2.817500000000000
H      -3.120200000000000     -0.539700000000000      2.914900000000000
H      -6.849800000000000     -3.333000000000000      1.290900000000000
H      -5.609700000000000     -4.499200000000000      1.650200000000000
H      -6.715500000000000     -0.216700000000000     -0.887200000000000
H      -7.210700000000000     -1.384100000000000      0.318300000000000
H      -6.153900000000000     -0.053400000000000      0.777600000000000
H      -6.588600000000000     -4.020300000000000     -2.492000000000000
H      -7.462900000000000     -3.009600000000000     -1.374100000000000
H      -5.296100000000000     -5.060100000000000     -0.703500000000000
H      -0.080000000000000      5.985100000000000     -0.279700000000000
H      -0.097500000000000      5.026500000000000      1.171300000000000
H      -2.288100000000000      4.099800000000000     -2.408800000000000
H      -0.592000000000000      3.582800000000000     -2.530500000000000
H      -1.013900000000000      5.290600000000000     -2.364400000000000
H      -7.056400000000000     -5.980900000000000      0.424600000000000
H       1.362200000000000      4.422100000000000     -1.330100000000000
H       2.264400000000000      5.052300000000000      1.407200000000000
H       2.336000000000000      6.159900000000000      0.028900000000000
H       3.855700000000000      4.624800000000000     -1.164900000000000
H       4.509100000000000      5.128200000000000      0.390000000000000
H       3.825300000000000      2.973200000000000      1.417600000000000
H       3.091800000000000      2.447700000000000     -0.098700000000000
H       6.056200000000000      3.116700000000000      0.258500000000000
H       5.303400000000000      2.578400000000000     -1.244900000000000
H       4.618300000000000      0.445700000000000     -0.147400000000000
H       5.337600000000000      0.978800000000000      1.369000000000000
H       6.882700000000000      0.572600000000000     -1.234400000000000
H       7.584400000000000      1.035500000000000      0.313100000000000
H       6.874800000000000     -1.137000000000000      1.305900000000000
H       6.104400000000000     -1.597600000000000     -0.214300000000000
H       9.083500000000001     -0.980700000000000      0.121500000000000
H       8.310000000000000     -1.461500000000000     -1.385800000000000
H       7.688800000000000     -3.653400000000000     -0.392200000000000
H       8.392500000000000     -3.167800000000000      1.147400000000000
H       9.927199999999999     -3.515000000000000     -1.479300000000000
H      10.641700000000000     -2.959700000000000      0.036100000000000
H       9.943800000000000     -5.108300000000000      1.145500000000000
H       9.265800000000000     -5.668100000000000     -0.384900000000000
H      11.533300000000001     -5.530200000000000     -1.439800000000000
H      12.211300000000000     -4.968800000000000      0.101200000000000
H      11.529500000000001     -6.599400000000000     -0.026700000000000
