97

O      -0.820100000000000     -1.372000000000000      2.013500000000000
O      -1.187100000000000     -1.178500000000000     -0.258300000000000
C       6.094300000000000     -0.339100000000000      1.119000000000000
C       5.415600000000000      0.981000000000000      0.741900000000000
C       5.823100000000000     -1.463700000000000      0.114900000000000
C       5.384700000000000      1.953600000000000      1.922200000000000
C       6.324200000000000     -1.167200000000000     -1.301300000000000
C       4.940200000000000      3.367500000000000      1.537100000000000
C       6.063600000000000     -2.311700000000000     -2.291100000000000
C       3.593500000000000      3.479600000000000      0.817000000000000
C       4.594100000000000     -2.722200000000000     -2.450700000000000
C       2.409600000000000      2.947100000000000      1.628100000000000
C      -4.325600000000000     -2.839200000000000      2.438500000000000
C      -2.807700000000000     -2.797700000000000      2.173300000000000
C       3.706100000000000     -1.608000000000000     -3.013000000000000
C       1.088000000000000      3.235800000000000      0.909100000000000
C      -5.184700000000000     -1.953100000000000      1.528100000000000
C      -5.063400000000000     -2.309100000000000      0.044300000000000
C       2.215400000000000     -1.969700000000000     -3.036600000000000
C      -0.116500000000000      2.704900000000000      1.690100000000000
C      -5.943700000000000     -1.435300000000000     -0.853900000000000
C       1.568700000000000     -2.197400000000000     -1.663200000000000
C      -1.458800000000000      3.194200000000000      1.135300000000000
C      -5.430500000000000      0.003300000000000     -0.965800000000000
C      -2.234000000000000     -1.376900000000000      2.287700000000000
C       1.627800000000000     -0.968200000000000     -0.748900000000000
C      -1.752600000000000      2.717100000000000     -0.289700000000000
C      -6.288600000000000      0.823800000000000     -1.933000000000000
C      -2.092000000000000     -3.748500000000000      3.142200000000000
C       1.070700000000000     -1.245100000000000      0.646800000000000
C      -3.086800000000000      3.279500000000000     -0.796100000000000
C      -5.830500000000000      2.281000000000000     -2.041300000000000
C      -0.439100000000000     -1.258300000000000      0.705600000000000
C      -3.351100000000000      2.866400000000000     -2.215900000000000
C      -4.507100000000000      2.426300000000000     -2.735900000000000
H       7.175000000000000     -0.181300000000000      1.217900000000000
H       5.731500000000000     -0.669200000000000      2.100400000000000
H       4.391400000000000      0.782400000000000      0.408100000000000
H       5.950800000000000      1.440900000000000     -0.096800000000000
H       4.745400000000000     -1.655700000000000      0.105300000000000
H       6.302200000000000     -2.380300000000000      0.480300000000000
H       6.386600000000000      2.021500000000000      2.364400000000000
H       4.727300000000000      1.558300000000000      2.705600000000000
H       7.405100000000000     -0.982800000000000     -1.264700000000000
H       5.870600000000000     -0.248100000000000     -1.684700000000000
H       5.709100000000000      3.811500000000000      0.892100000000000
H       4.911700000000000      3.981700000000000      2.445700000000000
H       6.634400000000000     -3.191600000000000     -1.968700000000000
H       6.464400000000000     -2.025000000000000     -3.271100000000000
H       3.641000000000000      2.965600000000000     -0.150200000000000
H       3.423200000000000      4.539900000000000      0.590400000000000
H       4.215200000000000     -3.080600000000000     -1.489700000000000
H       4.548000000000000     -3.581700000000000     -3.131400000000000
H       2.399700000000000      3.418800000000000      2.617900000000000
H       2.511800000000000      1.867200000000000      1.781800000000000
H      -4.517200000000000     -2.544300000000000      3.478500000000000
H      -4.675700000000000     -3.875500000000000      2.344800000000000
H      -2.606600000000000     -3.180200000000000      1.165700000000000
H       4.025500000000000     -1.394600000000000     -4.041000000000000
H       3.842600000000000     -0.676500000000000     -2.457200000000000
H       1.116300000000000      2.777500000000000     -0.086100000000000
H       0.983800000000000      4.318300000000000      0.766400000000000
H      -4.933900000000000     -0.901900000000000      1.698200000000000
H      -6.232600000000000     -2.066500000000000      1.833700000000000
H      -5.358900000000000     -3.356700000000000     -0.091800000000000
H      -4.024300000000000     -2.226200000000000     -0.291500000000000
H       1.672700000000000     -1.167000000000000     -3.551200000000000
H       2.077600000000000     -2.874100000000000     -3.642000000000000
H      -0.042700000000000      3.032000000000000      2.734600000000000
H      -0.097400000000000      1.609700000000000      1.700700000000000
H      -6.976000000000000     -1.440000000000000     -0.484100000000000
H      -5.962900000000000     -1.883200000000000     -1.855300000000000
H       2.037700000000000     -3.054100000000000     -1.167200000000000
H       0.521600000000000     -2.478800000000000     -1.825800000000000
H      -1.482200000000000      4.290500000000000      1.168800000000000
H      -2.256800000000000      2.842400000000000      1.800900000000000
H      -4.389000000000000     -0.012200000000000     -1.307400000000000
H      -5.441800000000000      0.486500000000000      0.017200000000000
H      -2.733900000000000     -0.671500000000000      1.615700000000000
H      -2.362800000000000     -0.992800000000000      3.305800000000000
H       2.668500000000000     -0.656100000000000     -0.624500000000000
H       1.096700000000000     -0.130400000000000     -1.216500000000000
H      -1.776700000000000      1.621100000000000     -0.312700000000000
H      -0.950900000000000      3.037300000000000     -0.964900000000000
H      -7.328900000000000      0.813300000000000     -1.584500000000000
H      -6.283100000000000      0.355300000000000     -2.925200000000000
H      -2.496400000000000     -4.763100000000000      3.059500000000000
H      -1.020400000000000     -3.803900000000000      2.924500000000000
H      -2.211300000000000     -3.419800000000000      4.180200000000000
H       1.413000000000000     -0.445300000000000      1.314000000000000
H       1.448000000000000     -2.199700000000000      1.029300000000000
H      -3.054700000000000      4.375000000000000     -0.759500000000000
H      -3.886600000000000      2.953100000000000     -0.124400000000000
H      -5.829300000000000      2.744500000000000     -1.049900000000000
H      -6.572900000000000      2.835500000000000     -2.629100000000000
H      -2.504900000000000      2.943000000000000     -2.897100000000000
H      -4.507300000000000      2.167900000000000     -3.793800000000000
