97

N       5.347700000000000      0.622000000000000     -0.706200000000000
N      13.404900000000000     -2.398300000000000      0.901900000000000
C      -3.347800000000000      0.976400000000000      0.649500000000000
C      -2.720600000000000      0.595000000000000     -0.709300000000000
C      -1.307000000000000      1.157900000000000     -0.893700000000000
C      -0.395400000000000      0.595100000000000      0.245400000000000
C       1.094400000000000      1.082700000000000      0.100600000000000
C      -4.736900000000000      0.315300000000000      0.473700000000000
C       1.585900000000000      0.662400000000000     -1.322100000000000
C      -2.478500000000000      0.364000000000000      1.756800000000000
C      -1.012900000000000      0.824400000000000      1.650400000000000
C      -3.803300000000000      0.961000000000000     -1.720100000000000
C      -0.742200000000000      0.816400000000000     -2.279900000000000
C      -5.121800000000000      0.655500000000000     -0.985300000000000
C       0.714000000000000      1.247600000000000     -2.438700000000000
C       2.006100000000000      0.374800000000000      1.142600000000000
C      -3.482400000000000      2.503000000000000      0.878300000000000
C       3.074400000000000      0.964600000000000     -1.556900000000000
C      -5.811600000000000      0.709500000000000      1.476700000000000
C       1.195600000000000      2.613700000000000      0.322900000000000
C       3.502100000000000      0.626800000000000      0.922800000000000
C       3.942500000000000      0.271900000000000     -0.500100000000000
C      -7.240500000000000      0.415100000000000      0.970800000000000
C      -5.578800000000000     -0.021900000000000      2.804500000000000
C      -7.464500000000000     -1.056300000000000      0.607700000000000
C       6.219800000000000     -0.389800000000000     -0.130700000000000
C      -8.862800000000000     -1.341500000000000      0.043600000000000
C       7.684100000000000     -0.033000000000000     -0.381300000000000
C      -9.177099999999999     -2.814900000000000     -0.278100000000000
C       8.619700000000000     -1.097400000000000      0.198400000000000
C     -10.608400000000000     -3.011700000000000     -0.778100000000000
C      -8.187300000000000     -3.336500000000000     -1.324100000000000
C      10.087500000000000     -0.723300000000000     -0.020400000000000
C      11.068600000000000     -1.771300000000000      0.514300000000000
C      12.532700000000000     -1.359400000000000      0.364100000000000
H      -2.627100000000000     -0.503500000000000     -0.751900000000000
H      -1.349800000000000      2.249400000000000     -0.827300000000000
H      -0.376200000000000     -0.498700000000000      0.113700000000000
H      -4.598700000000000     -0.775900000000000      0.512200000000000
H       1.483700000000000     -0.432100000000000     -1.393100000000000
H      -2.509200000000000     -0.731600000000000      1.703400000000000
H      -2.837700000000000      0.642900000000000      2.750200000000000
H      -0.438000000000000      0.275200000000000      2.404300000000000
H      -0.951500000000000      1.881800000000000      1.925600000000000
H      -3.753700000000000      2.020800000000000     -1.994600000000000
H      -3.716700000000000      0.375600000000000     -2.641200000000000
H      -1.340700000000000      1.300700000000000     -3.060400000000000
H      -0.815500000000000     -0.265000000000000     -2.453500000000000
H      -5.760300000000000      1.542300000000000     -1.058700000000000
H      -5.637700000000000     -0.171400000000000     -1.481300000000000
H       1.077000000000000      0.901400000000000     -3.414200000000000
H       0.782000000000000      2.341300000000000     -2.454300000000000
H       1.753400000000000      0.699200000000000      2.159000000000000
H       1.827700000000000     -0.708100000000000      1.107800000000000
H      -3.836100000000000      2.717700000000000      1.893100000000000
H      -2.530400000000000      3.030000000000000      0.773800000000000
H      -4.181100000000000      2.973300000000000      0.179400000000000
H       3.252500000000000      2.046700000000000     -1.559800000000000
H       3.361300000000000      0.605200000000000     -2.554300000000000
H      -5.796600000000000      1.785400000000000      1.677400000000000
H       0.946000000000000      2.881700000000000      1.354900000000000
H       2.203900000000000      2.996000000000000      0.141700000000000
H       0.528100000000000      3.180800000000000     -0.330200000000000
H       3.737200000000000      1.675200000000000      1.143900000000000
H       4.052200000000000      0.030300000000000      1.659700000000000
H       3.805900000000000     -0.808900000000000     -0.648300000000000
H      -7.488000000000000      1.049200000000000      0.112800000000000
H      -7.960100000000000      0.698200000000000      1.750700000000000
H      -5.322200000000000     -1.076900000000000      2.664900000000000
H      -4.784100000000000      0.452600000000000      3.382700000000000
H      -6.472800000000000      0.021800000000000      3.437300000000000
H       5.542000000000000      0.692100000000000     -1.705100000000000
H      -6.720900000000000     -1.393300000000000     -0.114400000000000
H      -7.329800000000000     -1.676300000000000      1.502000000000000
H       6.066200000000000     -0.473200000000000      0.950400000000000
H       6.013200000000000     -1.371200000000000     -0.575600000000000
H      -9.005800000000001     -0.736800000000000     -0.861800000000000
H      -9.605200000000000     -0.983100000000000      0.768700000000000
H       7.910300000000000      0.940400000000000      0.072100000000000
H       7.867000000000000      0.062300000000000     -1.459200000000000
H      -9.055000000000000     -3.407000000000000      0.637500000000000
H       8.429399999999999     -1.213200000000000      1.272200000000000
H       8.413900000000000     -2.065700000000000     -0.273600000000000
H     -10.784100000000000     -2.456600000000000     -1.705900000000000
H     -10.814000000000000     -4.070000000000000     -0.970100000000000
H     -11.328900000000001     -2.660300000000000     -0.032200000000000
H      -8.179900000000000     -2.704900000000000     -2.219000000000000
H      -8.454000000000001     -4.353100000000000     -1.633900000000000
H      -7.169000000000000     -3.385400000000000     -0.926900000000000
H      10.270899999999999     -0.578200000000000     -1.092300000000000
H      10.289099999999999      0.238100000000000      0.468200000000000
H      10.850300000000001     -1.953300000000000      1.574600000000000
H      10.895500000000000     -2.719500000000000     -0.010900000000000
H      12.716799999999999     -0.423000000000000      0.901200000000000
H      12.771599999999999     -1.192400000000000     -0.691900000000000
H      14.377400000000000     -2.134500000000000      0.749400000000000
H      13.260700000000000     -3.267000000000000      0.388700000000000
