97

O       6.052600000000000      0.979500000000000      0.276000000000000
O       7.230100000000000     -3.815000000000000     -1.120100000000000
C       0.906700000000000      0.351800000000000      0.734800000000000
C       0.876300000000000      0.327400000000000     -0.855200000000000
C      -3.173900000000000     -0.625300000000000      0.175900000000000
C      -0.279500000000000     -0.394400000000000     -1.653800000000000
C      -2.943900000000000      0.528100000000000      1.203800000000000
C      -0.417400000000000      0.032500000000000      1.458500000000000
C       2.073800000000000     -0.503900000000000      1.382400000000000
C      -1.505800000000000      1.087800000000000      1.257100000000000
C      -2.945800000000000     -0.265000000000000     -1.308400000000000
C      -1.632300000000000      0.349700000000000     -1.801600000000000
C      -4.611400000000000     -1.182000000000000      0.281800000000000
C       1.103200000000000      1.757000000000000     -1.469300000000000
C       3.510500000000000     -0.085300000000000      0.976300000000000
C      -0.377300000000000     -1.904000000000000     -1.438500000000000
C      -3.350300000000000      0.112400000000000      2.630100000000000
C      -5.666100000000000     -0.159400000000000     -0.171700000000000
C       1.922900000000000     -2.010600000000000      1.133700000000000
C       3.987300000000000      1.256100000000000      1.563400000000000
C      -4.720800000000000     -2.456200000000000     -0.554000000000000
C       2.312800000000000      2.457800000000000     -0.928200000000000
C       5.125200000000000      1.941400000000000      0.771200000000000
C      -7.086400000000000     -0.496500000000000      0.293100000000000
C       4.675600000000000      2.862500000000000     -0.387700000000000
C       3.599900000000000      2.271600000000000     -1.274200000000000
C      -8.148600000000000      0.481400000000000     -0.226600000000000
C       4.069600000000000      1.435400000000000     -2.429400000000000
C      -9.590000000000000      0.239200000000000      0.260000000000000
C       6.824500000000000      0.428100000000000      1.327900000000000
C     -10.053200000000000     -1.154600000000000     -0.174500000000000
C     -10.567700000000000      1.293600000000000     -0.259500000000000
C       7.780600000000000     -0.604400000000000      0.747900000000000
C       7.032200000000000     -1.741300000000000      0.060800000000000
C       7.986600000000000     -2.795400000000000     -0.481900000000000
H       1.122000000000000      1.380200000000000      1.044200000000000
H       1.768400000000000     -0.236900000000000     -1.156400000000000
H      -2.515100000000000     -1.455200000000000      0.437500000000000
H       0.113900000000000     -0.351200000000000     -2.685200000000000
H      -3.571800000000000      1.384000000000000      0.930100000000000
H      -0.226700000000000     -0.016300000000000      2.539800000000000
H      -0.749600000000000     -0.966800000000000      1.201900000000000
H       2.009300000000000     -0.363300000000000      2.470900000000000
H      -1.434000000000000      1.807700000000000      2.085000000000000
H      -1.309000000000000      1.707400000000000      0.386800000000000
H      -3.102400000000000     -1.148500000000000     -1.934900000000000
H      -3.705700000000000      0.459500000000000     -1.622200000000000
H      -1.780500000000000      0.458700000000000     -2.889000000000000
H      -1.573300000000000      1.389800000000000     -1.486300000000000
H      -4.813700000000000     -1.485500000000000      1.313800000000000
H       0.245400000000000      2.403000000000000     -1.256800000000000
H       1.165900000000000      1.695300000000000     -2.561900000000000
H       3.611700000000000     -0.113800000000000     -0.108500000000000
H       4.200900000000000     -0.857600000000000      1.338700000000000
H      -0.679100000000000     -2.189000000000000     -0.434000000000000
H       0.589300000000000     -2.378100000000000     -1.638800000000000
H      -1.090300000000000     -2.350000000000000     -2.140400000000000
H      -3.034900000000000      0.860700000000000      3.365800000000000
H      -4.436700000000000      0.031600000000000      2.732200000000000
H      -2.898600000000000     -0.844600000000000      2.911700000000000
H      -5.438400000000000      0.841000000000000      0.206400000000000
H      -5.690100000000000     -0.085100000000000     -1.265500000000000
H       2.088400000000000     -2.262700000000000      0.083300000000000
H       0.940700000000000     -2.381500000000000      1.436000000000000
H       2.662300000000000     -2.568900000000000      1.719600000000000
H       3.163100000000000      1.962300000000000      1.699100000000000
H       4.340100000000000      1.053800000000000      2.583500000000000
H      -4.846200000000000     -2.264600000000000     -1.624200000000000
H      -3.853900000000000     -3.111100000000000     -0.413900000000000
H      -5.598800000000000     -3.033900000000000     -0.242400000000000
H       2.103000000000000      3.107200000000000     -0.078700000000000
H       5.659100000000000      2.606200000000000      1.465500000000000
H      -7.114400000000000     -0.508400000000000      1.389500000000000
H      -7.335400000000000     -1.507200000000000     -0.044400000000000
H       5.540300000000000      3.136900000000000     -1.005200000000000
H       4.305600000000000      3.801900000000000      0.045300000000000
H      -8.131800000000000      0.469000000000000     -1.324400000000000
H      -7.854100000000000      1.496800000000000      0.069600000000000
H       4.631400000000000      2.057400000000000     -3.134000000000000
H       3.248800000000000      0.973000000000000     -2.983400000000000
H       4.726400000000000      0.630300000000000     -2.087100000000000
H      -9.600600000000000      0.279700000000000      1.356400000000000
H       7.410300000000000      1.220300000000000      1.809000000000000
H       6.202600000000000     -0.050100000000000      2.090000000000000
H      -9.956200000000001     -1.289400000000000     -1.257100000000000
H     -11.105000000000000     -1.310900000000000      0.089800000000000
H      -9.481600000000000     -1.942700000000000      0.324700000000000
H     -10.613600000000000      1.286800000000000     -1.353700000000000
H     -11.577299999999999      1.114500000000000      0.125000000000000
H     -10.260199999999999      2.294800000000000      0.059900000000000
H       8.436600000000000     -0.118900000000000      0.015000000000000
H       8.414999999999999     -1.001000000000000      1.548800000000000
H       6.415000000000000     -1.360700000000000     -0.762400000000000
H       6.334600000000000     -2.215500000000000      0.762500000000000
H       8.672400000000000     -2.360500000000000     -1.216000000000000
H       8.569699999999999     -3.248200000000000      0.326400000000000
H       7.863400000000000     -4.471900000000000     -1.456200000000000
