97

O      -0.036300000000000      3.663400000000000      2.683700000000000
O      -6.510000000000000      0.857400000000000     -0.559100000000000
C       1.619000000000000      1.184300000000000      1.981200000000000
C       4.033300000000000     -0.368700000000000      1.211600000000000
C       2.107300000000000     -0.005500000000000      2.817200000000000
C       2.037400000000000      1.027000000000000      0.513800000000000
C       3.614600000000000     -0.211900000000000      2.679000000000000
C       3.544700000000000      0.820900000000000      0.375600000000000
C       0.103700000000000      1.339100000000000      2.096500000000000
C       5.548800000000000     -0.522200000000000      1.096500000000000
C      -5.701500000000000     -1.391900000000000     -0.493500000000000
C      -4.008400000000000      1.902800000000000     -1.876900000000000
C       5.943000000000000     -1.119700000000000     -0.249700000000000
C      -0.368300000000000      2.729300000000000      1.651900000000000
C       7.459600000000000     -1.256100000000000     -0.371800000000000
C      -5.317400000000000      0.086500000000000     -0.494700000000000
C      -1.884300000000000      2.833100000000000      1.352200000000000
C      -4.410100000000000      0.411700000000000     -1.690500000000000
C      -4.455200000000000     -2.275300000000000     -0.354800000000000
C      -6.707200000000000     -1.689500000000000      0.625700000000000
C      -3.595900000000000      2.613700000000000     -0.560300000000000
C      -2.332300000000000      2.045300000000000      0.101200000000000
C      -5.823900000000000     -4.056300000000000      0.817600000000000
C      -4.817600000000000     -3.758400000000000     -0.301200000000000
C      -7.069900000000000     -3.172500000000000      0.679000000000000
C       8.100800000000000      0.099100000000000     -0.699400000000000
C       7.825900000000000     -2.304300000000000     -1.431200000000000
C      -2.928200000000000      2.088700000000000     -2.994100000000000
C       9.612299999999999     -0.021200000000000     -0.879300000000000
C       9.337999999999999     -2.420600000000000     -1.609700000000000
C       9.972899999999999     -1.070200000000000     -1.926600000000000
C      -2.748300000000000      2.418400000000000      2.551800000000000
C      -6.208600000000000     -5.534400000000000      0.817500000000000
C      -3.366100000000000      1.492900000000000     -4.340100000000000
C      -2.571800000000000      3.564800000000000     -3.218900000000000
H       2.111800000000000      2.078600000000000      2.382700000000000
H       3.553500000000000     -1.280800000000000      0.830300000000000
H       1.586700000000000     -0.920000000000000      2.504900000000000
H       1.863700000000000      0.153400000000000      3.874500000000000
H       1.758400000000000      1.907700000000000     -0.073300000000000
H       1.516800000000000      0.170900000000000      0.065400000000000
H       4.139400000000000      0.641100000000000      3.127900000000000
H       3.907700000000000     -1.101100000000000      3.250000000000000
H       3.774200000000000      0.673600000000000     -0.684800000000000
H       4.062000000000000      1.737300000000000      0.687800000000000
H      -0.190100000000000      1.186200000000000      3.142900000000000
H      -0.385700000000000      0.556400000000000      1.505500000000000
H       5.908600000000000     -1.190500000000000      1.889500000000000
H       6.034300000000000      0.446200000000000      1.260200000000000
H      -6.199300000000000     -1.629000000000000     -1.444600000000000
H      -4.912800000000000      2.423600000000000     -2.224300000000000
H       0.158600000000000      3.060100000000000      0.751400000000000
H       5.556600000000000     -0.525000000000000     -1.084100000000000
H       5.478900000000000     -2.111100000000000     -0.332400000000000
H       7.864900000000000     -1.608100000000000      0.587000000000000
H      -4.816400000000000      0.328400000000000      0.449000000000000
H      -2.087100000000000      3.899300000000000      1.178200000000000
H      -3.479100000000000     -0.159200000000000     -1.622000000000000
H      -4.924800000000000      0.087100000000000     -2.603300000000000
H      -3.897800000000000     -2.003700000000000      0.550700000000000
H      -3.776600000000000     -2.146500000000000     -1.203100000000000
H      -7.629400000000000     -1.114600000000000      0.482000000000000
H      -6.290300000000000     -1.385400000000000      1.594500000000000
H      -4.422600000000000      2.569200000000000      0.154900000000000
H      -3.460400000000000      3.685100000000000     -0.746100000000000
H      -1.512800000000000      2.083900000000000     -0.624400000000000
H      -2.473800000000000      0.987800000000000      0.350700000000000
H      -5.346200000000000     -3.832100000000000      1.780800000000000
H      -3.905400000000000     -4.347800000000000     -0.149000000000000
H      -5.234500000000000     -4.063500000000000     -1.269700000000000
H      -7.620700000000000     -3.442300000000000     -0.231200000000000
H      -7.747500000000000     -3.347900000000000      1.523200000000000
H       7.902400000000000      0.825300000000000      0.096000000000000
H       7.663200000000000      0.508400000000000     -1.619100000000000
H       7.367700000000000     -2.038300000000000     -2.392500000000000
H       7.422500000000000     -3.283500000000000     -1.146600000000000
H      -2.012100000000000      1.561300000000000     -2.702100000000000
H      10.073600000000001     -0.288500000000000      0.079400000000000
H      10.026800000000000      0.949800000000000     -1.173100000000000
H       9.560200000000000     -3.130100000000000     -2.414700000000000
H       9.783300000000001     -2.827500000000000     -0.693400000000000
H      11.061999999999999     -1.178100000000000     -1.981100000000000
H       9.635400000000001     -0.731100000000000     -2.913800000000000
H      -2.662100000000000      1.347000000000000      2.760400000000000
H      -3.805400000000000      2.638000000000000      2.371600000000000
H      -2.455300000000000      2.963500000000000      3.455100000000000
H      -6.692300000000000     -5.820600000000000     -0.122600000000000
H      -6.902000000000000     -5.755100000000000      1.635900000000000
H      -5.323600000000000     -6.165800000000000      0.948900000000000
H      -2.624500000000000      1.698300000000000     -5.120000000000000
H      -3.468300000000000      0.405200000000000     -4.281200000000000
H      -4.324000000000000      1.912600000000000     -4.665100000000000
H      -1.908500000000000      3.679700000000000     -4.083500000000000
H      -2.037900000000000      3.986900000000000     -2.362600000000000
H      -3.468600000000000      4.166200000000000     -3.401800000000000
H       0.928600000000000      3.774800000000000      2.690400000000000
H      -6.279200000000000      1.795600000000000     -0.468500000000000
