97

N       4.861800000000000      0.173000000000000      0.436500000000000
N      -5.239000000000000      1.015400000000000      0.278000000000000
C       8.614699999999999     -0.664100000000000      0.320300000000000
C      -7.997400000000000     -1.663700000000000      0.388300000000000
C       6.044700000000000     -0.645400000000000      0.163500000000000
C      -6.536500000000000      0.414000000000000     -0.035000000000000
C       7.312400000000000      0.152300000000000      0.502800000000000
C      -6.624300000000000     -0.981400000000000      0.600400000000000
C       8.508100000000001     -2.002400000000000      1.086100000000000
C      -9.131399999999999     -0.713400000000000      0.834900000000000
C       5.984100000000000     -1.951700000000000      0.961500000000000
C      -7.673700000000000      1.316200000000000      0.454600000000000
C       7.241500000000000     -2.792300000000000      0.757800000000000
C      -9.039199999999999      0.679300000000000      0.212000000000000
C       8.894100000000000     -0.915800000000000     -1.174200000000000
C      -8.180800000000000     -2.070500000000000     -1.086700000000000
C       2.433500000000000      1.647600000000000     -0.287400000000000
C      -2.590500000000000      2.092800000000000     -0.370200000000000
C       4.955200000000000      1.461300000000000     -0.263400000000000
C       3.639200000000000     -0.548300000000000      0.058300000000000
C      -4.146700000000000      0.115800000000000     -0.116600000000000
C      -5.108800000000000      2.325300000000000     -0.374000000000000
C       3.751500000000000      2.350600000000000      0.054700000000000
C       2.390200000000000      0.272100000000000      0.386800000000000
C      -2.784500000000000      0.706400000000000      0.253200000000000
C      -3.779400000000000      2.991700000000000     -0.013700000000000
C       9.795400000000001      0.144900000000000      0.891000000000000
C      -8.055300000000001     -2.945500000000000      1.241500000000000
C       1.235000000000000      2.498200000000000      0.124000000000000
C      -1.274300000000000      2.718700000000000      0.082500000000000
C      -0.078600000000000      1.848300000000000     -0.302500000000000
C       8.962100000000000      0.407400000000000     -1.923500000000000
C      10.184500000000000     -1.706300000000000     -1.339100000000000
C      -7.039600000000000     -2.977600000000000     -1.524800000000000
C      -9.528000000000000     -2.753000000000000     -1.277400000000000
H       6.066100000000000     -0.894900000000000     -0.905900000000000
H      -6.625900000000000      0.306700000000000     -1.124400000000000
H       7.247300000000000      0.454400000000000      1.559700000000000
H       7.416100000000000      1.085300000000000     -0.047600000000000
H      -6.466100000000000     -0.868500000000000      1.684300000000000
H      -5.848100000000000     -1.671800000000000      0.276100000000000
H       8.473599999999999     -1.776600000000000      2.162300000000000
H       9.388900000000000     -2.639700000000000      0.974400000000000
H      -9.055099999999999     -0.581400000000000      1.924500000000000
H     -10.131600000000001     -1.127500000000000      0.684800000000000
H       5.858100000000000     -1.740900000000000      2.031500000000000
H       5.149700000000000     -2.588800000000000      0.653900000000000
H      -7.697900000000000      2.276200000000000     -0.069400000000000
H      -7.558400000000000      1.530200000000000      1.525200000000000
H       7.191600000000000     -3.677600000000000      1.402900000000000
H       7.282100000000000     -3.161600000000000     -0.273100000000000
H      -9.817399999999999      1.319600000000000      0.644200000000000
H      -9.242400000000000      0.627200000000000     -0.863600000000000
H       8.090900000000000     -1.508000000000000     -1.626600000000000
H      -8.168200000000001     -1.189900000000000     -1.738300000000000
H       2.401900000000000      1.500200000000000     -1.375900000000000
H      -2.566100000000000      1.979300000000000     -1.462900000000000
H       5.042800000000000      1.322400000000000     -1.348700000000000
H       5.802100000000000      2.062500000000000      0.073500000000000
H       3.518300000000000     -1.476200000000000      0.623200000000000
H       3.644600000000000     -0.804600000000000     -1.009200000000000
H      -4.180400000000000     -0.107700000000000     -1.190800000000000
H      -4.163100000000000     -0.829600000000000      0.429700000000000
H      -5.872500000000000      3.030500000000000     -0.036700000000000
H      -5.194500000000000      2.235600000000000     -1.464800000000000
H       3.767000000000000      2.619100000000000      1.119600000000000
H       3.831800000000000      3.287500000000000     -0.509800000000000
H       2.300600000000000      0.386000000000000      1.475200000000000
H       1.525000000000000     -0.307400000000000      0.049000000000000
H      -2.023200000000000      0.003600000000000     -0.100500000000000
H      -2.692000000000000      0.765700000000000      1.345700000000000
H      -3.696200000000000      3.947800000000000     -0.544400000000000
H      -3.766800000000000      3.222000000000000      1.060000000000000
H       9.616099999999999      0.344500000000000      1.956300000000000
H       9.921900000000001      1.130200000000000      0.436600000000000
H      10.749000000000001     -0.388300000000000      0.861100000000000
H      -7.918800000000000     -2.682400000000000      2.299500000000000
H      -7.260200000000000     -3.662300000000000      1.024100000000000
H      -9.019900000000000     -3.457600000000000      1.200900000000000
H       1.236000000000000      2.656500000000000      1.209900000000000
H       1.315900000000000      3.488800000000000     -0.340800000000000
H      -1.282300000000000      2.873200000000000      1.169000000000000
H      -1.166200000000000      3.709100000000000     -0.377400000000000
H      -0.170000000000000      0.884300000000000      0.200100000000000
H      -0.077200000000000      1.668500000000000     -1.384000000000000
H       8.007000000000000      0.937300000000000     -1.955700000000000
H       9.202000000000000      0.203600000000000     -2.975700000000000
H       9.743700000000000      1.086900000000000     -1.578100000000000
H      10.156499999999999     -2.697200000000000     -0.882000000000000
H      10.347600000000000     -1.893300000000000     -2.408900000000000
H      11.078500000000000     -1.176300000000000     -1.001800000000000
H      -6.955500000000000     -3.908500000000000     -0.960700000000000
H      -7.214700000000000     -3.285700000000000     -2.564300000000000
H      -6.069500000000000     -2.475300000000000     -1.545300000000000
H     -10.382700000000000     -2.114000000000000     -1.048000000000000
H      -9.644399999999999     -3.010100000000000     -2.338700000000000
H      -9.628299999999999     -3.699600000000000     -0.741200000000000
