97

N      -1.131000000000000      3.850600000000000     -0.292200000000000
N       1.143700000000000      3.853300000000000      0.283100000000000
C      -1.734300000000000      2.516900000000000     -0.442600000000000
C       1.742500000000000      2.517900000000000      0.436800000000000
C      -3.222600000000000      2.610900000000000     -0.063600000000000
C      -1.544000000000000      2.056000000000000     -1.895500000000000
C       3.231200000000000      2.606200000000000      0.057400000000000
C       1.550700000000000      2.061200000000000      1.890600000000000
C      -3.444700000000000      2.605900000000000      1.455600000000000
C      -1.520500000000000      0.527200000000000     -1.991000000000000
C       3.453300000000000      2.597000000000000     -1.461700000000000
C       1.522300000000000      0.532700000000000      1.989700000000000
C      -3.552000000000000      1.189000000000000      2.037400000000000
C      -1.633600000000000      0.040800000000000     -3.436200000000000
C       3.555900000000000      1.178300000000000     -2.040300000000000
C       1.633600000000000      0.049300000000000      3.436000000000000
C      -4.943300000000000      0.584600000000000      1.813800000000000
C      -1.277300000000000     -1.439600000000000     -3.614600000000000
C       4.945100000000000      0.569800000000000     -1.815200000000000
C       1.272500000000000     -1.429500000000000      3.618000000000000
C      -5.099200000000000     -0.825700000000000      2.388100000000000
C      -1.963200000000000     -2.417600000000000     -2.655900000000000
C       5.096400000000000     -0.842400000000000     -2.386200000000000
C       1.955200000000000     -2.412100000000000      2.661600000000000
C      -4.270300000000000     -1.919400000000000      1.706200000000000
C      -3.488900000000000     -2.424600000000000     -2.770500000000000
C       4.263900000000000     -1.931600000000000     -1.701700000000000
C       3.480900000000000     -2.423700000000000      2.776200000000000
C      -4.548000000000000     -2.048700000000000      0.205400000000000
C      -4.149900000000000     -3.483200000000000     -1.878400000000000
C       4.541100000000000     -2.058500000000000     -0.200500000000000
C       4.138300000000000     -3.486600000000000      1.886600000000000
C      -3.917900000000000     -3.319300000000000     -0.371300000000000
C       3.906800000000000     -3.325500000000000      0.379200000000000
C       0.007600000000000      3.840600000000000     -0.004200000000000
H      -1.248400000000000      1.793700000000000      0.228700000000000
H       1.255000000000000      1.794100000000000     -0.232900000000000
H      -3.635300000000000      3.543600000000000     -0.470200000000000
H      -3.789500000000000      1.796400000000000     -0.526400000000000
H      -2.342900000000000      2.466900000000000     -2.525700000000000
H      -0.600800000000000      2.434200000000000     -2.310100000000000
H       3.795400000000000      1.791000000000000      0.522200000000000
H       3.646900000000000      3.538500000000000      0.461800000000000
H       2.351000000000000      2.470800000000000      2.519800000000000
H       0.608900000000000      2.443300000000000      2.304600000000000
H      -2.627500000000000      3.139900000000000      1.954700000000000
H      -4.362700000000000      3.160100000000000      1.686300000000000
H      -0.586200000000000      0.161900000000000     -1.546600000000000
H      -2.341800000000000      0.106400000000000     -1.401800000000000
H       2.637900000000000      3.132500000000000     -1.962100000000000
H       4.373100000000000      3.147600000000000     -1.693700000000000
H       2.342100000000000      0.107800000000000      1.401600000000000
H       0.586700000000000      0.169400000000000      1.546100000000000
H      -3.366200000000000      1.242000000000000      3.117200000000000
H      -2.773900000000000      0.547600000000000      1.611000000000000
H      -0.965800000000000      0.629200000000000     -4.077800000000000
H      -2.651600000000000      0.223100000000000     -3.800600000000000
H       3.370400000000000      1.229500000000000     -3.120200000000000
H       2.775600000000000      0.540500000000000     -1.612400000000000
H       0.967800000000000      0.641400000000000      4.076200000000000
H       2.652200000000000      0.229100000000000      3.800100000000000
H      -5.683800000000000      1.229400000000000      2.304600000000000
H      -5.202100000000000      0.585300000000000      0.750500000000000
H      -1.496500000000000     -1.730900000000000     -4.649200000000000
H      -0.192500000000000     -1.550500000000000     -3.489000000000000
H       5.687800000000000      1.211000000000000     -2.307400000000000
H       5.203900000000000      0.572100000000000     -0.751800000000000
H       0.187300000000000     -1.537100000000000      3.492500000000000
H       1.490600000000000     -1.719000000000000      4.653200000000000
H      -6.158700000000000     -1.104900000000000      2.324200000000000
H      -4.850500000000000     -0.810400000000000      3.456400000000000
H      -1.586200000000000     -3.425400000000000     -2.870900000000000
H      -1.656600000000000     -2.188800000000000     -1.630200000000000
H       4.847800000000000     -0.828700000000000     -3.454500000000000
H       6.155000000000000     -1.125000000000000     -2.321500000000000
H       1.574900000000000     -3.418100000000000      2.879100000000000
H       1.649300000000000     -2.184700000000000      1.635300000000000
H      -4.500400000000000     -2.871200000000000      2.201200000000000
H      -3.201400000000000     -1.738100000000000      1.867700000000000
H      -3.764900000000000     -2.634800000000000     -3.811400000000000
H      -3.898800000000000     -1.436800000000000     -2.538300000000000
H       4.490700000000000     -2.885400000000000     -2.194500000000000
H       3.195500000000000     -1.747200000000000     -1.863600000000000
H       3.756200000000000     -2.632400000000000      3.817600000000000
H       3.894000000000000     -1.437800000000000      2.541600000000000
H      -5.629800000000000     -2.070300000000000      0.027600000000000
H      -4.149000000000000     -1.169200000000000     -0.308300000000000
H      -5.229200000000000     -3.480900000000000     -2.075200000000000
H      -3.784600000000000     -4.473400000000000     -2.178400000000000
H       4.145000000000000     -1.176300000000000      0.311000000000000
H       5.622800000000000     -2.083200000000000     -0.022700000000000
H       5.217600000000000     -3.487500000000000      2.083300000000000
H       3.769700000000000     -4.474900000000000      2.189000000000000
H      -4.357100000000000     -4.188900000000000      0.134100000000000
H      -2.846700000000000     -3.345300000000000     -0.144200000000000
H       4.343100000000000     -4.197800000000000     -0.124200000000000
H       2.835500000000000     -3.348400000000000      0.152100000000000
