97

N      -4.356200000000000      1.077700000000000      0.531700000000000
N       2.966100000000000     -0.287900000000000      0.633100000000000
C      -3.502300000000000      1.928000000000000     -0.299900000000000
C       4.063900000000000      0.202900000000000     -0.202000000000000
C      -1.961900000000000      1.527200000000000     -0.263300000000000
C       5.294200000000000     -0.802400000000000     -0.305800000000000
C      -3.475300000000000      3.354500000000000      0.347300000000000
C       4.712600000000000      1.424800000000000      0.533200000000000
C      -1.321000000000000      2.785200000000000      0.427200000000000
C       6.430700000000000      0.008400000000000      0.416000000000000
C      -2.399600000000000      3.210300000000000      1.431600000000000
C       5.670900000000000      0.750100000000000      1.523100000000000
C      -2.802600000000000      4.395900000000000     -0.569200000000000
C       5.723000000000000      2.171300000000000     -0.360700000000000
C      -1.319300000000000      4.016200000000000     -0.498600000000000
C       6.911600000000000      1.205900000000000     -0.425100000000000
C      -4.171100000000000      1.906100000000000     -1.681200000000000
C       3.393000000000000      0.585200000000000     -1.528500000000000
C      -1.657300000000000      0.217700000000000      0.489000000000000
C      -1.313900000000000      1.349700000000000     -1.660900000000000
C       5.674100000000000     -1.204500000000000     -1.743700000000000
C       5.089300000000000     -2.137900000000000      0.455200000000000
C      -4.758800000000000     -0.117300000000000     -0.199800000000000
C       2.070400000000000     -1.136800000000000     -0.143300000000000
C      -5.530600000000000      1.825800000000000      0.984000000000000
C       2.232800000000000      0.835600000000000      1.219000000000000
C      -5.266200000000000     -1.218600000000000      0.734400000000000
C       1.261100000000000     -2.080100000000000      0.749500000000000
C      -5.734800000000000     -2.470900000000000     -0.014600000000000
C       0.340300000000000     -3.011800000000000     -0.045400000000000
C      -4.616200000000000     -3.162600000000000     -0.800700000000000
C      -0.428600000000000     -4.000200000000000      0.837500000000000
C      -3.485000000000000     -3.692000000000000      0.084800000000000
C      -1.296800000000000     -5.019800000000000      0.092900000000000
C      -2.436500000000000     -4.435400000000000     -0.747000000000000
H      -4.407100000000000      3.803600000000000      0.688100000000000
H       4.069300000000000      2.189600000000000      0.965700000000000
H      -0.343900000000000      2.590300000000000      0.874800000000000
H       7.257300000000000     -0.611900000000000      0.772300000000000
H      -2.167600000000000      4.152700000000000      1.940400000000000
H      -2.625000000000000      2.448700000000000      2.183500000000000
H       6.298500000000000      1.463300000000000      2.069800000000000
H       5.176200000000000      0.096200000000000      2.245800000000000
H      -3.184300000000000      4.429000000000000     -1.590100000000000
H      -2.936200000000000      5.403800000000000     -0.155500000000000
H       5.349500000000000      2.452200000000000     -1.346100000000000
H       6.041500000000000      3.101600000000000      0.127300000000000
H      -0.759500000000000      4.833200000000000     -0.025300000000000
H      -0.865400000000000      3.866700000000000     -1.479200000000000
H       7.195300000000000      0.952100000000000     -1.448200000000000
H       7.788900000000000      1.669400000000000      0.043000000000000
H      -4.052600000000000      0.966000000000000     -2.231800000000000
H      -3.711200000000000      2.635700000000000     -2.354200000000000
H      -5.230500000000000      2.183100000000000     -1.680300000000000
H       3.062000000000000     -0.258200000000000     -2.144000000000000
H       4.099900000000000      1.096700000000000     -2.189100000000000
H       2.562900000000000      1.292600000000000     -1.429700000000000
H      -0.579000000000000      0.117100000000000      0.606700000000000
H      -2.081100000000000      0.206000000000000      1.497800000000000
H      -1.995600000000000     -0.671900000000000     -0.045300000000000
H      -1.564700000000000      2.139800000000000     -2.371800000000000
H      -0.221400000000000      1.308400000000000     -1.581000000000000
H      -1.641600000000000      0.409900000000000     -2.121600000000000
H       5.799400000000000     -0.349400000000000     -2.412300000000000
H       6.617400000000000     -1.763000000000000     -1.752700000000000
H       4.907000000000000     -1.848700000000000     -2.188200000000000
H       6.029600000000000     -2.702500000000000      0.488800000000000
H       4.777200000000000     -1.992400000000000      1.493800000000000
H       4.357300000000000     -2.787500000000000     -0.032900000000000
H      -3.925100000000000     -0.539300000000000     -0.763700000000000
H      -5.571900000000000      0.080200000000000     -0.912000000000000
H       1.354400000000000     -0.560700000000000     -0.744600000000000
H       2.617400000000000     -1.794700000000000     -0.828400000000000
H      -5.291000000000000      2.455100000000000      1.849100000000000
H      -6.045300000000000      2.412700000000000      0.216600000000000
H      -6.298200000000000      1.160700000000000      1.393300000000000
H       2.759300000000000      1.253500000000000      2.084800000000000
H       1.944200000000000      1.630300000000000      0.524700000000000
H       1.302400000000000      0.490100000000000      1.680400000000000
H      -6.124700000000000     -0.872000000000000      1.319200000000000
H      -4.493100000000000     -1.476200000000000      1.467200000000000
H       1.957200000000000     -2.695700000000000      1.334700000000000
H       0.657700000000000     -1.532100000000000      1.479100000000000
H      -6.543300000000000     -2.202400000000000     -0.705100000000000
H      -6.159500000000000     -3.178900000000000      0.707500000000000
H       0.939100000000000     -3.577000000000000     -0.770200000000000
H      -0.365700000000000     -2.405900000000000     -0.623200000000000
H      -5.064300000000000     -4.009800000000000     -1.336200000000000
H      -4.214900000000000     -2.501300000000000     -1.575900000000000
H       0.299000000000000     -4.562600000000000      1.437200000000000
H      -1.040700000000000     -3.444400000000000      1.557000000000000
H      -3.005600000000000     -2.858500000000000      0.604900000000000
H      -3.895200000000000     -4.363800000000000      0.848000000000000
H      -0.651500000000000     -5.614000000000000     -0.566000000000000
H      -1.718200000000000     -5.719800000000000      0.825000000000000
H      -2.925100000000000     -5.261200000000000     -1.279400000000000
H      -2.030200000000000     -3.769500000000000     -1.516800000000000
