98

N      -1.745200000000000      0.471300000000000      0.195400000000000
N       1.839700000000000     -0.275900000000000      0.760100000000000
C      -0.354900000000000      0.332700000000000     -0.250300000000000
C       0.540800000000000      0.361200000000000      1.000700000000000
C       0.025100000000000      1.435900000000000     -1.261800000000000
C      -2.260900000000000     -0.795700000000000      0.751200000000000
C      -1.840800000000000      1.581000000000000      1.167000000000000
C       2.876700000000000      0.257400000000000      1.666100000000000
C       1.697900000000000     -1.741800000000000      0.883800000000000
C      -2.428200000000000     -1.896400000000000     -0.310900000000000
C      -3.276700000000000      2.018700000000000      1.510500000000000
C      -0.857900000000000      1.442900000000000     -2.516700000000000
C       3.238500000000000      1.723600000000000      1.372100000000000
C       2.909800000000000     -2.553400000000000      0.390000000000000
C      -3.167000000000000     -3.142000000000000      0.207000000000000
C      -4.076300000000000      2.478000000000000      0.286000000000000
C       4.464200000000000      2.222500000000000      2.156000000000000
C       3.246500000000000     -2.298600000000000     -1.083500000000000
C      -4.630900000000000     -2.924700000000000      0.615000000000000
C      -5.559500000000000      2.741400000000000      0.583100000000000
C      -0.435600000000000      2.496800000000000     -3.544200000000000
C      -5.544900000000000     -2.571000000000000     -0.562600000000000
C      -6.363700000000000      1.536300000000000      1.092300000000000
C       5.794300000000000      1.534900000000000      1.817700000000000
C       4.556800000000000     -2.956800000000000     -1.538000000000000
C      -6.955900000000000     -2.138400000000000     -0.140400000000000
C      -6.297000000000000      0.322300000000000      0.162600000000000
C      -7.033900000000000     -0.886200000000000      0.745400000000000
C       6.282600000000000      1.820600000000000      0.394000000000000
C       5.825700000000000     -2.495600000000000     -0.806100000000000
C       7.488000000000000      0.969100000000000     -0.027500000000000
C       6.040000000000000     -0.980900000000000     -0.853200000000000
C       7.262100000000000     -0.550000000000000     -0.038400000000000
C      -1.259100000000000      2.461000000000000     -4.822500000000000
H      -0.226800000000000     -0.602900000000000     -0.799400000000000
H       0.682600000000000      1.407400000000000      1.284700000000000
H       0.104400000000000     -0.126300000000000      1.880000000000000
H       0.012100000000000      2.431700000000000     -0.805200000000000
H       1.064700000000000      1.271400000000000     -1.575500000000000
H      -1.658700000000000     -1.176700000000000      1.582700000000000
H      -3.252100000000000     -0.606500000000000      1.164900000000000
H      -1.384100000000000      1.334400000000000      2.132700000000000
H      -1.343800000000000      2.481100000000000      0.790200000000000
H       3.785900000000000     -0.332300000000000      1.547500000000000
H       2.567800000000000      0.152800000000000      2.714200000000000
H       0.835500000000000     -2.094200000000000      0.307600000000000
H       1.499100000000000     -2.015000000000000      1.928900000000000
H      -1.448100000000000     -2.240100000000000     -0.657400000000000
H      -2.941700000000000     -1.492900000000000     -1.190300000000000
H      -3.224200000000000      2.851100000000000      2.224200000000000
H      -3.792800000000000      1.211900000000000      2.037600000000000
H      -1.902200000000000      1.626700000000000     -2.238300000000000
H      -0.822800000000000      0.451400000000000     -2.984800000000000
H       3.399200000000000      1.860100000000000      0.297100000000000
H       2.408800000000000      2.384200000000000      1.644700000000000
H       3.772400000000000     -2.355200000000000      1.031300000000000
H       2.685700000000000     -3.620300000000000      0.517700000000000
H      -2.620400000000000     -3.539500000000000      1.071300000000000
H      -3.128100000000000     -3.917900000000000     -0.567700000000000
H      -3.993000000000000      1.752800000000000     -0.529800000000000
H      -3.630200000000000      3.405800000000000     -0.094300000000000
H       4.269700000000000      2.095300000000000      3.228200000000000
H       4.571600000000000      3.301100000000000      1.986200000000000
H       3.285800000000000     -1.225200000000000     -1.295800000000000
H       2.429600000000000     -2.693600000000000     -1.701000000000000
H      -5.002500000000000     -3.850700000000000      1.072100000000000
H      -4.682300000000000     -2.164800000000000      1.398300000000000
H      -5.638500000000000      3.549600000000000      1.320500000000000
H      -6.031100000000000      3.113400000000000     -0.335000000000000
H      -0.516900000000000      3.493900000000000     -3.095300000000000
H       0.619800000000000      2.349500000000000     -3.802800000000000
H      -5.633300000000000     -3.451400000000000     -1.211800000000000
H      -5.103500000000000     -1.787900000000000     -1.185200000000000
H      -7.410800000000000      1.842500000000000      1.208800000000000
H      -6.015600000000000      1.257500000000000      2.093400000000000
H       5.706100000000000      0.460800000000000      1.997800000000000
H       6.556600000000000      1.894000000000000      2.520800000000000
H       4.682400000000000     -2.763400000000000     -2.610700000000000
H       4.467500000000000     -4.044600000000000     -1.428600000000000
H      -7.445500000000000     -2.968400000000000      0.383500000000000
H      -7.542800000000000     -1.958100000000000     -1.049900000000000
H      -5.251000000000000      0.054500000000000      0.003000000000000
H      -6.721000000000000      0.580600000000000     -0.814900000000000
H      -8.090700000000000     -0.630100000000000      0.891200000000000
H      -6.636100000000000     -1.116100000000000      1.740600000000000
H       5.478800000000000      1.685700000000000     -0.335000000000000
H       6.567300000000000      2.878500000000000      0.329000000000000
H       5.793800000000000     -2.834400000000000      0.235600000000000
H       6.689700000000000     -2.995000000000000     -1.262000000000000
H       8.335000000000001      1.191900000000000      0.632800000000000
H       7.790700000000000      1.282900000000000     -1.034500000000000
H       5.154900000000000     -0.484900000000000     -0.450400000000000
H       6.152600000000000     -0.654700000000000     -1.893800000000000
H       7.165900000000000     -0.913500000000000      0.991200000000000
H       8.158700000000000     -1.030900000000000     -0.448900000000000
H      -1.167300000000000      1.489700000000000     -5.318700000000000
H      -0.916400000000000      3.233400000000000     -5.517800000000000
H      -2.317800000000000      2.638900000000000     -4.608900000000000
