98

O      -0.947700000000000      2.170900000000000      1.645500000000000
O       1.334500000000000      2.478900000000000      1.576200000000000
C       0.177800000000000     -0.158600000000000     -3.805200000000000
C       1.462500000000000      0.463200000000000     -3.251100000000000
C      -0.501200000000000     -1.126200000000000     -2.832100000000000
C      -2.619400000000000      3.187000000000000      0.227100000000000
C       1.196200000000000      1.475000000000000     -2.133000000000000
C      -2.953600000000000      1.898100000000000     -0.556800000000000
C      -1.824900000000000     -1.630300000000000     -3.411100000000000
C      -4.445700000000000      1.680100000000000     -0.853300000000000
C       2.424000000000000      2.318700000000000     -1.776700000000000
C      -5.359000000000000      1.581400000000000      0.377500000000000
C      -2.496600000000000     -2.729000000000000     -2.583400000000000
C       3.559000000000000      1.498100000000000     -1.163200000000000
C       1.278800000000000     -2.838100000000000      0.636100000000000
C       2.479800000000000     -3.777600000000000      0.796600000000000
C       1.079700000000000     -1.895700000000000      1.826800000000000
C      -5.002600000000000      0.453900000000000      1.352200000000000
C      -2.718000000000000     -2.346300000000000     -1.119000000000000
C       4.727100000000000      2.392600000000000     -0.736900000000000
C      -1.142500000000000      3.192900000000000      0.652000000000000
C       3.829300000000000     -3.095600000000000      1.041000000000000
C      -0.255500000000000     -1.154300000000000      1.733200000000000
C       4.282000000000000     -2.219700000000000     -0.130600000000000
C      -0.553700000000000     -0.283900000000000      2.957600000000000
C      -2.926700000000000      4.440000000000000     -0.593800000000000
C      -5.395600000000000     -0.934600000000000      0.833000000000000
C      -3.741700000000000     -3.266800000000000     -0.452000000000000
C       5.948500000000000      1.593700000000000     -0.271300000000000
C       5.641900000000000     -1.550900000000000      0.105500000000000
C       0.384200000000000      0.908900000000000      3.139000000000000
C      -4.646900000000000     -2.011000000000000      1.566500000000000
C      -3.912300000000000     -2.989400000000000      1.014100000000000
C       5.709800000000000      0.839800000000000      1.004700000000000
C       5.590900000000000     -0.487300000000000      1.166300000000000
C       0.337500000000000      1.922200000000000      2.018700000000000
H       0.426700000000000     -0.702400000000000     -4.725100000000000
H      -0.520300000000000      0.637800000000000     -4.091100000000000
H       2.130300000000000     -0.330400000000000     -2.897100000000000
H       1.976800000000000      0.970800000000000     -4.076400000000000
H      -3.221600000000000      3.209900000000000      1.142700000000000
H      -0.689600000000000     -0.624500000000000     -1.877600000000000
H       0.165900000000000     -1.972900000000000     -2.632600000000000
H       0.837200000000000      0.959400000000000     -1.235100000000000
H       0.397800000000000      2.157800000000000     -2.448900000000000
H      -2.565400000000000      1.023800000000000     -0.022400000000000
H      -2.416300000000000      1.914900000000000     -1.514600000000000
H      -1.659600000000000     -2.018500000000000     -4.423800000000000
H      -2.517500000000000     -0.784700000000000     -3.509700000000000
H      -4.545100000000000      0.768400000000000     -1.453600000000000
H      -4.812600000000000      2.491000000000000     -1.493100000000000
H       2.115500000000000      3.094900000000000     -1.066000000000000
H       2.784100000000000      2.839400000000000     -2.672300000000000
H      -6.394300000000000      1.451500000000000      0.038400000000000
H      -5.338800000000000      2.534400000000000      0.918200000000000
H      -1.892600000000000     -3.643500000000000     -2.629000000000000
H      -3.458300000000000     -2.964100000000000     -3.056000000000000
H       3.918500000000000      0.759700000000000     -1.888500000000000
H       3.175600000000000      0.949000000000000     -0.295900000000000
H       1.377100000000000     -2.251800000000000     -0.284600000000000
H       0.383400000000000     -3.459700000000000      0.510400000000000
H       2.551700000000000     -4.409200000000000     -0.097500000000000
H       2.282100000000000     -4.455700000000000      1.636400000000000
H       1.900300000000000     -1.171700000000000      1.857700000000000
H       1.111600000000000     -2.470900000000000      2.759800000000000
H      -5.539500000000000      0.630600000000000      2.293700000000000
H      -3.937800000000000      0.494500000000000      1.605700000000000
H      -3.058900000000000     -1.307400000000000     -1.057700000000000
H      -1.763800000000000     -2.403300000000000     -0.584400000000000
H       4.399300000000000      3.075200000000000      0.057300000000000
H       5.030600000000000      3.017900000000000     -1.585800000000000
H      -0.490700000000000      3.011100000000000     -0.209000000000000
H      -0.879300000000000      4.156300000000000      1.103600000000000
H       3.783100000000000     -2.514000000000000      1.967200000000000
H       4.581700000000000     -3.876800000000000      1.207800000000000
H      -1.060800000000000     -1.893100000000000      1.650300000000000
H      -0.285900000000000     -0.550500000000000      0.819000000000000
H       3.531800000000000     -1.451200000000000     -0.343900000000000
H       4.355700000000000     -2.845500000000000     -1.028800000000000
H      -0.506400000000000     -0.906800000000000      3.859400000000000
H      -1.589800000000000      0.068900000000000      2.886100000000000
H      -2.650600000000000      5.344000000000000     -0.040200000000000
H      -3.993800000000000      4.515100000000000     -0.822700000000000
H      -2.372800000000000      4.441200000000000     -1.538600000000000
H      -5.227300000000000     -1.004300000000000     -0.244200000000000
H      -6.470800000000000     -1.084700000000000      0.988000000000000
H      -3.428100000000000     -4.312000000000000     -0.567500000000000
H      -4.710200000000000     -3.187600000000000     -0.961100000000000
H       6.775400000000000      2.292500000000000     -0.093000000000000
H       6.286100000000000      0.938300000000000     -1.079700000000000
H       5.991100000000000     -1.142800000000000     -0.847600000000000
H       6.382200000000000     -2.304500000000000      0.400000000000000
H       0.127100000000000      1.438700000000000      4.063600000000000
H       1.418200000000000      0.564300000000000      3.245600000000000
H      -4.694600000000000     -1.972300000000000      2.653300000000000
H      -3.404500000000000     -3.677200000000000      1.687400000000000
H       5.634500000000000      1.456000000000000      1.899500000000000
H       5.436800000000000     -0.844000000000000      2.183200000000000
