98

O       2.277200000000000      2.465100000000000      1.484100000000000
O       3.741800000000000      4.243600000000000      1.563400000000000
C       3.029300000000000     -4.525200000000000     -0.096600000000000
C       2.568700000000000     -3.384300000000000     -1.005600000000000
C       1.929300000000000     -5.549900000000000      0.199800000000000
C       3.703900000000000     -2.391500000000000     -1.270000000000000
C       0.691300000000000     -5.004500000000000      0.921700000000000
C       3.240000000000000     -1.262000000000000     -2.191100000000000
C       1.011100000000000     -4.380900000000000      2.282400000000000
C       4.335700000000000     -0.239200000000000     -2.506100000000000
C      -0.235900000000000     -3.972800000000000      3.073300000000000
C       0.477400000000000      4.156600000000000      1.286000000000000
C      -0.474600000000000      3.426600000000000      0.314300000000000
C       0.234700000000000      2.681100000000000     -0.818200000000000
C       4.892300000000000      0.531600000000000     -1.304000000000000
C      -1.141400000000000     -2.932800000000000      2.404400000000000
C      -0.771400000000000      2.036000000000000     -1.773400000000000
C       3.832700000000000      1.353600000000000     -0.567600000000000
C      -0.425400000000000     -1.616900000000000      2.081300000000000
C       1.267700000000000      3.200900000000000      2.197700000000000
C      -0.069300000000000      1.377000000000000     -2.962800000000000
C      -0.338800000000000      5.115200000000000      2.160200000000000
C       4.445100000000000      2.161100000000000      0.575400000000000
C      -1.363700000000000     -0.561000000000000      1.488200000000000
C      -1.037000000000000      0.627600000000000     -3.884800000000000
C      -5.248500000000000      1.194600000000000      0.193700000000000
C      -4.334500000000000      0.917700000000000     -1.002400000000000
C      -5.678200000000000     -0.039000000000000      0.996800000000000
C       3.460600000000000      3.095500000000000      1.241600000000000
C      -4.979500000000000      0.037900000000000     -2.076500000000000
C      -4.535600000000000     -0.891600000000000      1.563600000000000
C      -4.085900000000000     -0.143000000000000     -3.310900000000000
C      -2.327400000000000     -0.006800000000000      2.497300000000000
C      -1.574700000000000     -0.627900000000000     -3.258600000000000
C      -3.662600000000000     -0.138600000000000      2.525800000000000
C      -2.854700000000000     -0.954200000000000     -3.022400000000000
H       3.427500000000000     -4.120400000000000      0.840700000000000
H       3.862700000000000     -5.050200000000000     -0.580300000000000
H       2.206700000000000     -3.796200000000000     -1.955300000000000
H       1.733000000000000     -2.846700000000000     -0.545100000000000
H       2.362600000000000     -6.357700000000000      0.802600000000000
H       1.607100000000000     -6.008700000000000     -0.743300000000000
H       4.554700000000000     -2.911900000000000     -1.725600000000000
H       4.045200000000000     -1.982400000000000     -0.312700000000000
H      -0.011800000000000     -5.834400000000000      1.065700000000000
H       0.182500000000000     -4.279200000000000      0.278600000000000
H       2.371400000000000     -0.760300000000000     -1.751900000000000
H       2.895800000000000     -1.694900000000000     -3.139000000000000
H       1.664800000000000     -3.511100000000000      2.161200000000000
H       1.572700000000000     -5.106800000000000      2.883700000000000
H       3.937000000000000      0.480900000000000     -3.231800000000000
H       5.167200000000000     -0.751600000000000     -3.005800000000000
H       0.086400000000000     -3.584100000000000      4.047500000000000
H      -0.833200000000000     -4.868900000000000      3.282900000000000
H       1.178400000000000      4.753800000000000      0.690200000000000
H      -1.148600000000000      4.165400000000000     -0.139000000000000
H      -1.112600000000000      2.731400000000000      0.873900000000000
H       0.868500000000000      1.889400000000000     -0.411100000000000
H       0.880200000000000      3.375400000000000     -1.368700000000000
H       5.677500000000000      1.205900000000000     -1.668800000000000
H       5.380900000000000     -0.157900000000000     -0.606300000000000
H      -1.980000000000000     -2.739500000000000      3.083800000000000
H      -1.578300000000000     -3.349400000000000      1.489500000000000
H      -1.479400000000000      2.788700000000000     -2.140000000000000
H      -1.346600000000000      1.289700000000000     -1.218000000000000
H       3.062800000000000      0.687100000000000     -0.163900000000000
H       3.334400000000000      2.030500000000000     -1.272100000000000
H       0.369100000000000     -1.803100000000000      1.349900000000000
H       0.059200000000000     -1.224400000000000      2.984000000000000
H       1.741200000000000      3.742400000000000      3.026200000000000
H       0.595600000000000      2.463500000000000      2.651300000000000
H       0.707400000000000      0.691900000000000     -2.604600000000000
H       0.441400000000000      2.152200000000000     -3.547500000000000
H      -0.884400000000000      5.837700000000000      1.543900000000000
H       0.314800000000000      5.682100000000000      2.831800000000000
H      -1.067100000000000      4.572000000000000      2.772200000000000
H       4.858100000000000      1.498400000000000      1.343800000000000
H       5.266400000000000      2.774900000000000      0.186800000000000
H      -1.868900000000000     -0.972500000000000      0.609900000000000
H      -0.754300000000000      0.273400000000000      1.122100000000000
H      -0.493100000000000      0.335100000000000     -4.791600000000000
H      -1.831200000000000      1.305300000000000     -4.210500000000000
H      -3.405300000000000      0.461800000000000     -0.651700000000000
H      -4.058900000000000      1.880700000000000     -1.450100000000000
H      -4.740900000000000      1.901600000000000      0.861300000000000
H      -6.151100000000000      1.708500000000000     -0.159900000000000
H      -6.314800000000000     -0.677500000000000      0.372900000000000
H      -6.316200000000000      0.298700000000000      1.824200000000000
H      -5.923300000000000      0.496700000000000     -2.395900000000000
H      -5.229300000000000     -0.945900000000000     -1.662500000000000
H      -3.964900000000000     -1.337200000000000      0.744800000000000
H      -4.979400000000000     -1.733100000000000      2.110400000000000
H      -3.847100000000000      0.839200000000000     -3.728500000000000
H      -4.661900000000000     -0.675000000000000     -4.078000000000000
H      -1.872700000000000      0.575400000000000      3.297800000000000
H      -0.821600000000000     -1.364900000000000     -2.982000000000000
H      -4.185600000000000      0.335700000000000      3.355000000000000
H      -3.036800000000000     -1.930800000000000     -2.575600000000000
