98

O      -0.233200000000000      0.288400000000000      1.399100000000000
N      -0.161000000000000     -0.188400000000000      0.112000000000000
C       0.173200000000000      0.941100000000000     -0.803300000000000
C      -1.489400000000000     -0.756100000000000     -0.268500000000000
C       0.891000000000000     -1.245500000000000      0.025800000000000
C       1.530000000000000      1.544700000000000     -0.400600000000000
C      -1.013900000000000      1.918100000000000     -0.847100000000000
C      -1.524000000000000     -2.222500000000000      0.202500000000000
C      -2.589800000000000      0.157100000000000      0.294200000000000
C       2.095000000000000     -0.806100000000000      0.873400000000000
C       1.174900000000000     -1.502600000000000     -1.466400000000000
C       1.551300000000000      2.205300000000000      0.983900000000000
C      -0.867100000000000      3.032500000000000     -1.892800000000000
C      -2.795500000000000     -3.004200000000000     -0.151300000000000
C      -3.774100000000000      0.290900000000000     -0.670200000000000
C       2.741500000000000     -1.986200000000000      1.608200000000000
C       2.194200000000000     -2.608400000000000     -1.768000000000000
C       2.665700000000000      3.252600000000000      1.141500000000000
C      -1.295700000000000      4.421200000000000     -1.395600000000000
C      -3.812000000000000     -3.021200000000000      0.995000000000000
C      -5.055900000000000      0.820600000000000     -0.027800000000000
C       4.156300000000000     -1.714800000000000      2.118600000000000
C       3.606200000000000     -2.058600000000000     -1.996200000000000
C       2.147400000000000      4.625300000000000      1.604000000000000
C      -0.439100000000000      5.018600000000000     -0.269100000000000
C      -5.230200000000000     -3.407800000000000      0.576100000000000
C      -5.754700000000000     -0.101200000000000      0.980500000000000
C       5.252700000000000     -1.547500000000000      1.058100000000000
C       4.716500000000000     -3.103200000000000     -1.885500000000000
C       1.930500000000000      5.659200000000000      0.488700000000000
C       1.019500000000000      5.248400000000000     -0.669600000000000
C      -5.983000000000000     -2.409900000000000     -0.313800000000000
C      -6.632000000000000     -1.214800000000000      0.395400000000000
C       5.828000000000000     -2.837100000000000      0.459700000000000
C       4.977100000000000     -3.688100000000000     -0.491000000000000
H       0.213400000000000      0.583400000000000     -1.834200000000000
H      -1.528800000000000     -0.762700000000000     -1.365500000000000
H       0.597200000000000     -2.146400000000000      0.552900000000000
H       1.673600000000000      2.364300000000000     -1.110700000000000
H       2.416100000000000      0.984200000000000     -0.670600000000000
H      -1.222200000000000      2.379100000000000      0.115800000000000
H      -1.848800000000000      1.425900000000000     -1.290600000000000
H      -1.325700000000000     -2.315000000000000      1.278000000000000
H      -0.800000000000000     -2.825600000000000     -0.353400000000000
H      -2.955700000000000     -0.357900000000000      1.185900000000000
H      -2.363200000000000      1.107700000000000      0.768000000000000
H       1.853100000000000     -0.187800000000000      1.722200000000000
H       2.903100000000000     -0.376800000000000      0.303500000000000
H       0.256300000000000     -1.778000000000000     -1.995100000000000
H       1.583400000000000     -0.636700000000000     -1.990600000000000
H       0.595400000000000      2.697400000000000      1.161400000000000
H       1.669900000000000      1.557400000000000      1.842600000000000
H       0.139900000000000      3.082100000000000     -2.313200000000000
H      -1.505500000000000      2.791400000000000     -2.755400000000000
H      -3.220300000000000     -2.635500000000000     -1.087300000000000
H      -2.524900000000000     -4.050600000000000     -0.350700000000000
H      -3.576000000000000      0.955200000000000     -1.514900000000000
H      -3.980400000000000     -0.664600000000000     -1.143500000000000
H       2.112600000000000     -2.234100000000000      2.475000000000000
H       2.739100000000000     -2.884600000000000      0.997400000000000
H       2.159000000000000     -3.378200000000000     -0.994300000000000
H       1.890700000000000     -3.116100000000000     -2.693500000000000
H       3.260200000000000      3.359000000000000      0.226800000000000
H       3.363800000000000      2.881200000000000      1.903700000000000
H      -2.337100000000000      4.370100000000000     -1.054100000000000
H      -1.284500000000000      5.112200000000000     -2.247800000000000
H      -3.832000000000000     -2.089500000000000      1.548700000000000
H      -3.467300000000000     -3.766600000000000      1.725200000000000
H      -4.817300000000000      1.765900000000000      0.476700000000000
H      -5.769300000000000      1.074900000000000     -0.821900000000000
H       4.444900000000000     -2.523900000000000      2.801000000000000
H       4.128000000000000     -0.801800000000000      2.727800000000000
H       3.639100000000000     -1.642700000000000     -3.012500000000000
H       3.822600000000000     -1.217600000000000     -1.345100000000000
H       1.239300000000000      4.520900000000000      2.208600000000000
H       2.899500000000000      5.051600000000000      2.281500000000000
H      -0.516400000000000      4.398300000000000      0.624700000000000
H      -0.874300000000000      5.986600000000000      0.011400000000000
H      -5.175600000000000     -4.366000000000000      0.043200000000000
H      -5.824800000000000     -3.597800000000000      1.478300000000000
H      -6.438900000000000      0.544200000000000      1.550400000000000
H      -5.063900000000000     -0.486100000000000      1.729900000000000
H       4.974300000000000     -0.836400000000000      0.281100000000000
H       6.094000000000000     -1.063000000000000      1.574900000000000
H       4.469500000000000     -3.931500000000000     -2.562300000000000
H       5.648400000000000     -2.668400000000000     -2.267500000000000
H       1.543000000000000      6.581000000000000      0.940300000000000
H       2.911500000000000      5.917000000000000      0.068900000000000
H       1.449800000000000      4.383200000000000     -1.168200000000000
H       1.041000000000000      6.051900000000000     -1.417700000000000
H      -5.385900000000000     -2.095700000000000     -1.169300000000000
H      -6.814800000000000     -2.975200000000000     -0.758800000000000
H      -7.255600000000000     -1.607600000000000      1.209600000000000
H      -7.334100000000000     -0.751700000000000     -0.310700000000000
H       6.755300000000000     -2.573500000000000     -0.066500000000000
H       6.139800000000000     -3.481900000000000      1.292200000000000
H       4.057500000000000     -4.025900000000000     -0.014000000000000
H       5.551800000000000     -4.611000000000000     -0.656000000000000
