98

O       0.596700000000000     -2.761700000000000      1.817200000000000
O       6.060900000000000      3.247900000000000      0.917700000000000
C      -0.709100000000000      0.405000000000000     -0.650600000000000
C      -2.134600000000000     -0.153800000000000     -0.876500000000000
C      -0.709400000000000      1.807900000000000     -0.041500000000000
C       0.213100000000000     -1.954900000000000     -0.416900000000000
C       0.159400000000000     -0.545800000000000      0.189500000000000
C      -2.056300000000000     -1.569700000000000     -1.472100000000000
C      -1.194700000000000     -2.518600000000000     -0.640800000000000
C       1.033700000000000     -2.891600000000000      0.468400000000000
C      -1.565400000000000      2.763100000000000     -0.882700000000000
C       0.723300000000000      2.338800000000000      0.096800000000000
C      -3.015000000000000     -0.138000000000000      0.379200000000000
C       2.572700000000000     -2.691200000000000      0.362600000000000
C      -1.541200000000000      4.184300000000000     -0.323100000000000
C       0.747400000000000      3.760200000000000      0.656000000000000
C      -0.108700000000000      4.715100000000000     -0.185500000000000
C       3.066500000000000     -2.314500000000000     -1.079600000000000
C      -4.494600000000000     -0.142200000000000      0.010300000000000
C       3.354600000000000     -3.892600000000000      0.955600000000000
C       4.538800000000000     -1.856600000000000     -1.142000000000000
C       4.837200000000000     -0.634200000000000     -0.276100000000000
C      -0.108500000000000      6.116800000000000      0.421400000000000
C       2.800900000000000     -3.464100000000000     -2.066700000000000
C      -5.367800000000000     -0.154800000000000      1.269200000000000
C       3.982900000000000      0.563000000000000     -0.715900000000000
C       6.332100000000000     -0.288200000000000     -0.323700000000000
C       2.979500000000000     -4.221000000000000      2.396100000000000
C       4.303000000000000      1.812100000000000      0.099600000000000
C       6.645400000000000      0.963200000000000      0.491000000000000
C       5.791700000000000      2.150200000000000      0.052600000000000
C      -6.877100000000000     -0.085600000000000      0.966400000000000
C      -7.725500000000000      0.003900000000000      2.236600000000000
C      -7.288200000000000     -1.307100000000000      0.177600000000000
C      -7.805000000000000     -1.256900000000000     -1.059100000000000
C      -8.038700000000000      0.011200000000000     -1.811100000000000
H      -0.235200000000000      0.471900000000000     -1.641900000000000
H      -2.618500000000000      0.459500000000000     -1.647100000000000
H      -1.116000000000000      1.779300000000000      0.976400000000000
H       0.619600000000000     -1.887100000000000     -1.427200000000000
H       1.180600000000000     -0.188700000000000      0.281100000000000
H      -0.250600000000000     -0.577900000000000      1.206700000000000
H      -3.052300000000000     -2.004900000000000     -1.603400000000000
H      -1.625300000000000     -1.501400000000000     -2.480000000000000
H      -1.691800000000000     -2.728800000000000      0.311700000000000
H      -1.125900000000000     -3.479400000000000     -1.166600000000000
H       0.825100000000000     -3.927400000000000      0.169700000000000
H      -2.613500000000000      2.450400000000000     -0.905300000000000
H      -1.208000000000000      2.776300000000000     -1.920200000000000
H       1.230200000000000      2.320400000000000     -0.875700000000000
H       1.309900000000000      1.734000000000000      0.793000000000000
H      -2.788500000000000     -0.980900000000000      1.040000000000000
H      -2.850900000000000      0.760800000000000      0.977400000000000
H       2.790400000000000     -1.840600000000000      1.019700000000000
H      -2.120700000000000      4.841800000000000     -0.982300000000000
H      -2.039900000000000      4.196000000000000      0.654700000000000
H       0.383800000000000      3.747600000000000      1.691700000000000
H       1.783000000000000      4.119200000000000      0.689100000000000
H       0.333200000000000      4.781900000000000     -1.188700000000000
H       2.494700000000000     -1.465700000000000     -1.455000000000000
H      -4.730700000000000      0.747300000000000     -0.586500000000000
H      -4.724200000000000     -1.016600000000000     -0.605200000000000
H       3.199600000000000     -4.790600000000000      0.347800000000000
H       4.427700000000000     -3.675800000000000      0.939400000000000
H       4.788900000000000     -1.625700000000000     -2.186700000000000
H       5.200700000000000     -2.683400000000000     -0.859400000000000
H       4.607400000000000     -0.860200000000000      0.771400000000000
H       0.911300000000000      6.509700000000000      0.490300000000000
H      -0.692600000000000      6.807200000000000     -0.196100000000000
H      -0.539700000000000      6.115500000000000      1.428300000000000
H      -0.304900000000000     -3.118000000000000      1.879600000000000
H       3.457600000000000     -4.318100000000000     -1.872800000000000
H       1.766500000000000     -3.815700000000000     -2.036700000000000
H       3.001300000000000     -3.130900000000000     -3.091300000000000
H      -5.145400000000000     -1.053900000000000      1.859400000000000
H      -5.098700000000000      0.703500000000000      1.898600000000000
H       2.920700000000000      0.363400000000000     -0.611100000000000
H       4.160400000000000      0.775300000000000     -1.778200000000000
H       6.646200000000000     -0.129200000000000     -1.363300000000000
H       6.923400000000000     -1.127300000000000      0.061900000000000
H       2.999100000000000     -3.328500000000000      3.028900000000000
H       1.994700000000000     -4.691800000000000      2.461600000000000
H       3.698800000000000     -4.936800000000000      2.808700000000000
H       3.725600000000000      2.663900000000000     -0.277800000000000
H       3.985400000000000      1.672900000000000      1.141100000000000
H       6.483200000000000      0.763800000000000      1.558400000000000
H       7.708200000000000      1.216600000000000      0.396100000000000
H       6.075200000000000      2.448300000000000     -0.963900000000000
H      -7.051700000000000      0.836800000000000      0.401800000000000
H      -7.579400000000000     -0.871300000000000      2.879700000000000
H      -8.791800000000000      0.072900000000000      1.994300000000000
H      -7.456100000000000      0.893300000000000      2.816400000000000
H      -7.150500000000000     -2.280000000000000      0.643700000000000
H       5.510600000000000      3.994000000000000      0.624300000000000
H      -8.061100000000000     -2.188400000000000     -1.556300000000000
H      -8.601800000000001      0.740100000000000     -1.220500000000000
H      -7.092700000000000      0.449400000000000     -2.142900000000000
H      -8.635800000000000     -0.201300000000000     -2.704500000000000
