98

O      -2.566700000000000      2.310800000000000     -1.325400000000000
O      -3.686700000000000     -6.175500000000000     -1.478300000000000
C      -5.065300000000000      2.906400000000000      0.697200000000000
C      -3.541900000000000      2.759500000000000      0.883000000000000
C      -5.156400000000000      4.267100000000000     -0.009800000000000
C      -2.932900000000000      3.335000000000000     -0.411400000000000
C      -4.018800000000000      4.222700000000000     -1.037300000000000
C      -5.725500000000000      1.772300000000000     -0.100900000000000
C      -6.530500000000000      4.580300000000000     -0.597900000000000
C      -3.061800000000000      1.367900000000000      1.269500000000000
C      -0.146400000000000     -2.290800000000000      0.755700000000000
C       1.172100000000000     -1.965300000000000      0.056400000000000
C      -7.141000000000000      2.136500000000000     -0.535400000000000
C      -7.150300000000000      3.415600000000000     -1.363700000000000
C      -0.786300000000000     -3.514900000000000      0.103400000000000
C      -1.544000000000000      1.341800000000000      1.470400000000000
C      -1.138200000000000     -1.110700000000000      0.721400000000000
C      -0.950600000000000     -0.039500000000000      1.816800000000000
C       2.253500000000000     -2.984000000000000      0.437600000000000
C       1.625400000000000     -0.538700000000000      0.391500000000000
C      -1.763200000000000     -4.196400000000000      1.071700000000000
C      -1.491300000000000     -3.125900000000000     -1.203500000000000
C       4.049600000000000     -1.225100000000000      0.123800000000000
C       3.596000000000000     -2.651600000000000     -0.211000000000000
C       2.968100000000000     -0.206000000000000     -0.256800000000000
C      -2.456100000000000     -5.390800000000000      0.422700000000000
C      -2.185300000000000     -4.323200000000000     -1.846000000000000
C      -1.505100000000000     -0.563900000000000      3.147300000000000
C      -3.153100000000000     -5.000400000000000     -0.877900000000000
C       5.367500000000000     -0.900100000000000     -0.576700000000000
C       6.094300000000000      0.247200000000000      0.121200000000000
C       7.429800000000000      0.605100000000000     -0.537500000000000
C       8.127700000000001      1.801800000000000      0.112500000000000
C       9.442700000000000      2.129100000000000     -0.598800000000000
C      10.123600000000000      3.347700000000000      0.024200000000000
C      11.446800000000000      3.655800000000000     -0.658100000000000
H      -5.556700000000000      2.966300000000000      1.676900000000000
H      -3.266200000000000      3.448000000000000      1.696700000000000
H      -4.915100000000000      5.057200000000000      0.715900000000000
H      -2.032700000000000      3.916300000000000     -0.182400000000000
H      -3.637500000000000      5.232700000000000     -1.224700000000000
H      -4.350600000000000      3.820400000000000     -2.000700000000000
H      -5.763800000000000      0.863700000000000      0.511500000000000
H      -5.136900000000000      1.524900000000000     -0.992000000000000
H      -6.471500000000000      5.460900000000000     -1.248200000000000
H      -7.205600000000000      4.845800000000000      0.226200000000000
H      -3.339200000000000      0.635400000000000      0.504300000000000
H      -3.566200000000000      1.066300000000000      2.194500000000000
H       0.074900000000000     -2.532000000000000      1.803000000000000
H       1.044600000000000     -2.005400000000000     -1.032400000000000
H      -7.778200000000000      2.262300000000000      0.348400000000000
H      -7.567100000000000      1.315600000000000     -1.123100000000000
H      -0.030400000000000     -4.268300000000000     -0.141100000000000
H      -6.606500000000000      3.251600000000000     -2.301300000000000
H      -8.181100000000001      3.667300000000000     -1.638500000000000
H      -1.028100000000000      1.706800000000000      0.576000000000000
H      -1.285800000000000      2.045000000000000      2.273500000000000
H      -1.093200000000000     -0.620500000000000     -0.260500000000000
H      -2.170200000000000     -1.463400000000000      0.827100000000000
H       0.090900000000000      0.161700000000000      2.038800000000000
H       2.381100000000000     -3.004700000000000      1.527700000000000
H       1.981400000000000     -3.999100000000000      0.134700000000000
H       0.925800000000000      0.220400000000000      0.035300000000000
H       1.790100000000000     -0.447100000000000      1.469900000000000
H      -2.531300000000000     -3.497800000000000      1.421600000000000
H      -1.224100000000000     -4.540100000000000      1.963000000000000
H      -0.781600000000000     -2.712700000000000     -1.927700000000000
H      -2.271800000000000     -2.372800000000000     -1.058700000000000
H       4.202700000000000     -1.179500000000000      1.211100000000000
H       4.347300000000000     -3.373500000000000      0.131500000000000
H       3.512600000000000     -2.771400000000000     -1.298900000000000
H       2.843700000000000     -0.180900000000000     -1.347200000000000
H       3.262400000000000      0.803100000000000      0.051700000000000
H      -2.212500000000000      2.742800000000000     -2.121300000000000
H      -1.724400000000000     -6.185700000000000      0.227200000000000
H      -3.184800000000000     -5.825800000000000      1.117500000000000
H      -2.723300000000000     -4.006700000000000     -2.748000000000000
H      -1.436400000000000     -5.049100000000000     -2.189200000000000
H      -2.557000000000000     -0.856000000000000      3.065500000000000
H      -1.428800000000000      0.200700000000000      3.928200000000000
H      -0.944800000000000     -1.437800000000000      3.494100000000000
H      -3.990800000000000     -4.328500000000000     -0.655800000000000
H       6.024300000000000     -1.779100000000000     -0.556500000000000
H       5.198500000000000     -0.659000000000000     -1.633200000000000
H       5.462800000000000      1.142500000000000      0.125700000000000
H       6.277200000000000     -0.016400000000000      1.170300000000000
H      -4.129400000000000     -5.908400000000000     -2.301800000000000
H       8.093500000000001     -0.267600000000000     -0.499900000000000
H       7.255700000000000      0.824700000000000     -1.598400000000000
H       8.322300000000000      1.583500000000000      1.169400000000000
H       7.463800000000000      2.674000000000000      0.078600000000000
H       9.249800000000000      2.321700000000000     -1.661200000000000
H      10.113700000000000      1.263200000000000     -0.543900000000000
H      10.303400000000000      3.169200000000000      1.090800000000000
H       9.466100000000001      4.221500000000000     -0.052400000000000
H      11.915900000000001      4.531000000000000     -0.197700000000000
H      12.139699999999999      2.813000000000000     -0.569500000000000
H      11.299400000000000      3.869400000000000     -1.721600000000000
