98

O       5.416100000000000     -0.933300000000000     -0.076200000000000
O       6.096700000000000     -1.552500000000000     -2.191400000000000
C       4.355200000000000     -2.396000000000000      1.581500000000000
C       3.063500000000000     -1.558800000000000      1.711200000000000
C       0.513400000000000      1.130100000000000     -2.201900000000000
C       3.326200000000000     -0.112900000000000      2.141700000000000
C       1.528300000000000      2.166500000000000     -2.703400000000000
C       1.042300000000000     -0.303900000000000     -2.170500000000000
C       2.751300000000000      2.368100000000000     -1.802300000000000
C      -0.057000000000000     -1.357800000000000     -2.008400000000000
C      -5.070100000000000      2.202300000000000     -1.852900000000000
C      -5.554300000000000      0.747400000000000     -1.853600000000000
C       2.044400000000000      0.722400000000000      2.119800000000000
C      -4.545600000000000      2.729600000000000     -0.513000000000000
C      -6.693200000000000      0.487700000000000     -0.864800000000000
C       3.937800000000000      1.475200000000000     -2.176900000000000
C      -0.789400000000000     -1.276100000000000     -0.668200000000000
C      -3.364100000000000      1.926100000000000      0.030600000000000
C      -7.305500000000000     -0.911100000000000     -0.995900000000000
C       2.332000000000000      2.181000000000000      2.490500000000000
C       4.997100000000000     -2.281200000000000      0.186500000000000
C       5.124300000000000      1.707000000000000     -1.236400000000000
C      -1.817100000000000     -2.402600000000000     -0.535100000000000
C      -2.824500000000000      2.525300000000000      1.331200000000000
C      -6.347000000000000     -2.084400000000000     -0.764500000000000
C       4.047600000000000     -3.869900000000000      1.863600000000000
C       1.107900000000000      3.089000000000000      2.347900000000000
C       6.285000000000000      0.749600000000000     -1.500100000000000
C      -2.557400000000000     -2.330200000000000      0.801100000000000
C      -1.678200000000000      1.679700000000000      1.887500000000000
C      -5.720100000000000     -2.094100000000000      0.632000000000000
C       0.047800000000000      2.814200000000000      3.374400000000000
C      -1.148900000000000      2.241900000000000      3.173400000000000
C       5.924000000000000     -0.707100000000000     -1.321800000000000
C      -3.565900000000000     -3.435600000000000      0.918100000000000
C      -4.902300000000000     -3.335600000000000      0.846400000000000
H       5.076600000000000     -2.047100000000000      2.331200000000000
H       2.401900000000000     -2.010900000000000      2.461500000000000
H       2.513600000000000     -1.577700000000000      0.762700000000000
H      -0.362700000000000      1.174800000000000     -2.861000000000000
H       0.168600000000000      1.421300000000000     -1.203000000000000
H       4.065600000000000      0.352700000000000      1.488500000000000
H       3.750300000000000     -0.106700000000000      3.153400000000000
H       1.838400000000000      1.926200000000000     -3.727300000000000
H       0.997700000000000      3.125900000000000     -2.761400000000000
H       1.761800000000000     -0.416100000000000     -1.352600000000000
H       1.574900000000000     -0.513900000000000     -3.105800000000000
H       2.474900000000000      2.218900000000000     -0.752700000000000
H       3.074600000000000      3.412900000000000     -1.894500000000000
H       0.403800000000000     -2.348900000000000     -2.104300000000000
H      -0.777300000000000     -1.264900000000000     -2.830400000000000
H      -5.892500000000000      2.850000000000000     -2.181600000000000
H      -4.279500000000000      2.303100000000000     -2.607000000000000
H      -4.710400000000000      0.080600000000000     -1.647000000000000
H      -5.897700000000000      0.504700000000000     -2.867000000000000
H       1.316600000000000      0.290300000000000      2.816100000000000
H       1.600100000000000      0.681300000000000      1.118300000000000
H      -5.355400000000000      2.747900000000000      0.225400000000000
H      -4.235500000000000      3.772600000000000     -0.654500000000000
H      -7.489100000000000      1.223300000000000     -1.036300000000000
H      -6.348800000000000      0.641100000000000      0.163100000000000
H       4.245700000000000      1.684500000000000     -3.208500000000000
H       3.642900000000000      0.424500000000000     -2.142100000000000
H      -1.301400000000000     -0.312700000000000     -0.582100000000000
H      -0.066600000000000     -1.337000000000000      0.153800000000000
H      -2.565000000000000      1.896700000000000     -0.719700000000000
H      -3.672600000000000      0.893000000000000      0.219500000000000
H      -8.139799999999999     -0.991100000000000     -0.287800000000000
H      -7.742200000000000     -1.013800000000000     -1.997300000000000
H       3.120900000000000      2.568600000000000      1.833700000000000
H       2.722200000000000      2.232500000000000      3.514800000000000
H       5.879200000000000     -2.930700000000000      0.132200000000000
H       4.282000000000000     -2.594100000000000     -0.584700000000000
H       4.795000000000000      1.613900000000000     -0.197100000000000
H       5.483600000000000      2.736300000000000     -1.357400000000000
H      -1.311900000000000     -3.372400000000000     -0.627300000000000
H      -2.537600000000000     -2.336300000000000     -1.360600000000000
H      -3.633200000000000      2.587300000000000      2.070300000000000
H      -2.476900000000000      3.549600000000000      1.146700000000000
H      -5.559800000000000     -2.080700000000000     -1.527900000000000
H      -6.911700000000000     -3.014100000000000     -0.915100000000000
H       3.643800000000000     -3.996900000000000      2.873700000000000
H       4.955100000000000     -4.478800000000000      1.791900000000000
H       3.314700000000000     -4.265900000000000      1.152200000000000
H       0.715900000000000      3.029100000000000      1.327200000000000
H       1.429400000000000      4.130100000000000      2.478500000000000
H       6.647300000000000      0.885900000000000     -2.526000000000000
H       7.123600000000000      0.973300000000000     -0.831300000000000
H      -3.021000000000000     -1.347100000000000      0.913400000000000
H      -1.843000000000000     -2.426000000000000      1.627900000000000
H      -0.890000000000000      1.582800000000000      1.135000000000000
H      -2.033000000000000      0.661300000000000      2.086300000000000
H      -6.509500000000000     -2.069400000000000      1.393000000000000
H      -5.121500000000000     -1.192900000000000      0.782600000000000
H       0.279800000000000      3.142500000000000      4.386100000000000
H      -1.805700000000000      2.141500000000000      4.035700000000000
H      -3.150500000000000     -4.430300000000000      1.072200000000000
H      -5.473900000000000     -4.256800000000000      0.948900000000000
