98

O       3.248600000000000     -3.159600000000000      0.191800000000000
O       2.040500000000000     -4.352600000000000      1.755800000000000
C      -7.187600000000000     -0.339200000000000     -1.245800000000000
C      -5.875300000000000     -0.723500000000000     -1.938700000000000
C      -7.048900000000000      0.574400000000000     -0.022300000000000
C      -4.931000000000000     -1.537300000000000     -1.050200000000000
C      -6.451500000000000      1.944000000000000     -0.355900000000000
C      -3.654000000000000     -1.920900000000000     -1.802100000000000
C      -6.404000000000000      2.899300000000000      0.842800000000000
C      -2.724800000000000     -2.766700000000000     -0.929100000000000
C      -5.592000000000000      2.415800000000000      2.049900000000000
C      -1.405400000000000     -3.062600000000000     -1.643500000000000
C      -4.139600000000000      2.074900000000000      1.709100000000000
C       4.601900000000000     -1.185900000000000      0.583200000000000
C       5.028100000000000     -0.181400000000000      1.670700000000000
C      -0.446900000000000     -3.849200000000000     -0.746700000000000
C       5.806000000000000      1.048100000000000      1.186100000000000
C      -3.358100000000000      1.645100000000000      2.953300000000000
C       5.033700000000000      1.907000000000000      0.181600000000000
C       0.895900000000000     -4.084200000000000     -1.444400000000000
C      -1.898700000000000      1.280700000000000      2.656700000000000
C       3.823100000000000     -2.344900000000000      1.229100000000000
C       5.820500000000000      3.169400000000000     -0.185200000000000
C       1.864100000000000     -4.896600000000000     -0.589600000000000
C       5.795000000000000     -1.722800000000000     -0.213800000000000
C      -1.762000000000000      0.050300000000000      1.758200000000000
C       5.144700000000000      4.003800000000000     -1.278400000000000
C       2.375200000000000     -4.122900000000000      0.601000000000000
C      -0.334200000000000     -0.385200000000000      1.610900000000000
C       3.866100000000000      4.649500000000000     -0.826900000000000
C       1.336800000000000      1.707100000000000     -0.877300000000000
C       1.023500000000000      2.650100000000000     -2.041800000000000
C       0.187400000000000      0.728500000000000     -0.620000000000000
C       2.209300000000000      3.544100000000000     -2.426600000000000
C       0.482300000000000     -0.125800000000000      0.578900000000000
C       2.631300000000000      4.469000000000000     -1.320800000000000
H      -7.706600000000000     -1.255500000000000     -0.937800000000000
H      -7.838200000000000      0.150400000000000     -1.981200000000000
H      -6.123600000000000     -1.318000000000000     -2.827100000000000
H      -5.364300000000000      0.173600000000000     -2.305500000000000
H      -6.453400000000000      0.070300000000000      0.745200000000000
H      -8.047100000000000      0.720500000000000      0.409100000000000
H      -5.443000000000000     -2.443500000000000     -0.705100000000000
H      -4.656800000000000     -0.959900000000000     -0.160800000000000
H      -7.055800000000000      2.414000000000000     -1.142000000000000
H      -5.444600000000000      1.833000000000000     -0.770700000000000
H      -3.133000000000000     -1.008700000000000     -2.118300000000000
H      -3.910300000000000     -2.479200000000000     -2.710500000000000
H      -7.429000000000000      3.106600000000000      1.174600000000000
H      -5.991400000000000      3.857300000000000      0.502100000000000
H      -3.221900000000000     -3.708400000000000     -0.666700000000000
H      -2.522300000000000     -2.239300000000000      0.009200000000000
H      -6.081100000000000      1.544400000000000      2.500500000000000
H      -5.608300000000000      3.205000000000000      2.812000000000000
H      -0.933100000000000     -2.120700000000000     -1.945100000000000
H      -1.603100000000000     -3.631000000000000     -2.560400000000000
H      -3.652900000000000      2.943400000000000      1.249900000000000
H      -4.124800000000000      1.265700000000000      0.974300000000000
H       3.930300000000000     -0.690700000000000     -0.128500000000000
H       5.644100000000000     -0.699900000000000      2.417000000000000
H       4.132300000000000      0.166300000000000      2.201900000000000
H      -0.900000000000000     -4.812400000000000     -0.482700000000000
H      -0.288200000000000     -3.300400000000000      0.188500000000000
H       6.765100000000000      0.739900000000000      0.754600000000000
H       6.049800000000000      1.660100000000000      2.063900000000000
H      -3.369700000000000      2.462900000000000      3.684200000000000
H      -3.856500000000000      0.790500000000000      3.427000000000000
H       4.064900000000000      2.182800000000000      0.612400000000000
H       4.838000000000000      1.332100000000000     -0.730100000000000
H       1.344600000000000     -3.119600000000000     -1.711000000000000
H       0.720900000000000     -4.626000000000000     -2.381800000000000
H       4.488000000000000     -2.966400000000000      1.840600000000000
H       3.020100000000000     -1.952500000000000      1.863600000000000
H      -1.391800000000000      1.093200000000000      3.612000000000000
H      -1.393100000000000      2.138300000000000      2.195400000000000
H       6.816000000000000      2.878500000000000     -0.543900000000000
H       5.975700000000000      3.782400000000000      0.711500000000000
H       1.389400000000000     -5.816600000000000     -0.229800000000000
H       2.730000000000000     -5.208200000000000     -1.185800000000000
H       6.294500000000000     -0.922900000000000     -0.768700000000000
H       5.476900000000000     -2.469800000000000     -0.948600000000000
H       6.532000000000000     -2.191700000000000      0.446700000000000
H      -2.203500000000000      0.238000000000000      0.774900000000000
H      -2.328800000000000     -0.785600000000000      2.186600000000000
H       5.006100000000000      3.389200000000000     -2.172500000000000
H       5.831700000000000      4.807900000000000     -1.571100000000000
H       0.055100000000000     -1.007500000000000      2.414600000000000
H       3.972400000000000      5.370400000000000     -0.017400000000000
H       1.529300000000000      2.290600000000000      0.031400000000000
H       2.251500000000000      1.144300000000000     -1.101000000000000
H       0.156500000000000      3.272500000000000     -1.786300000000000
H       0.738700000000000      2.059200000000000     -2.921200000000000
H       0.061100000000000      0.078700000000000     -1.493100000000000
H      -0.742600000000000      1.291900000000000     -0.493900000000000
H       1.914300000000000      4.158000000000000     -3.286200000000000
H       3.031800000000000      2.907400000000000     -2.764900000000000
H       1.475100000000000     -0.566800000000000      0.611100000000000
H       1.832100000000000      5.060700000000000     -0.876500000000000
