98

O       8.763400000000001     -0.493200000000000      0.299600000000000
O      14.094600000000000      2.423500000000000     -0.337600000000000
C       0.161000000000000     -0.983500000000000      0.200200000000000
C       3.087800000000000     -0.771800000000000     -0.271300000000000
C      -1.280200000000000     -1.010100000000000     -0.305100000000000
C       4.529500000000000     -0.744700000000000      0.232600000000000
C       0.964300000000000     -2.148500000000000     -0.392000000000000
C       0.825300000000000      0.359200000000000     -0.129100000000000
C       2.423700000000000     -2.114800000000000      0.058300000000000
C       2.284600000000000      0.392700000000000      0.321500000000000
C      -2.072300000000000      0.177900000000000      0.255400000000000
C      -1.957700000000000     -2.337300000000000      0.059700000000000
C      -4.209000000000000     -1.180600000000000      0.170300000000000
C      -3.531600000000000      0.146300000000000     -0.195100000000000
C      -3.417100000000000     -2.368700000000000     -0.390400000000000
C       5.343100000000000     -1.887500000000000     -0.390600000000000
C       5.180200000000000      0.614600000000000     -0.059700000000000
C       6.801300000000000     -1.848000000000000      0.056400000000000
C       6.639000000000000      0.647200000000000      0.386000000000000
C       7.443500000000000     -0.493800000000000     -0.233300000000000
C      -5.650800000000000     -1.207000000000000     -0.333700000000000
C      -6.556000000000000     -0.338700000000000      0.535200000000000
C      -8.004300000000001     -0.393000000000000      0.046600000000000
C     -10.351500000000000      0.476400000000000      0.387100000000000
C      -8.910200000000000      0.501500000000000      0.892600000000000
C     -11.314100000000000      0.981900000000000      1.469200000000000
C     -10.490200000000000      1.305900000000000     -0.895600000000000
C     -12.896599999999999      1.842400000000000     -0.312600000000000
C     -12.757800000000000      1.013400000000000      0.970600000000000
C     -11.933800000000000      1.337100000000000     -1.394400000000000
C       9.567000000000000      0.510700000000000     -0.303700000000000
C     -14.337600000000000      1.816000000000000     -0.818400000000000
C      10.965800000000000      0.445600000000000      0.292800000000000
C      11.881200000000000      1.510500000000000     -0.300900000000000
C      13.291399999999999      1.417900000000000      0.264300000000000
C      15.423800000000000      2.400500000000000      0.165200000000000
H       0.156900000000000     -1.097300000000000      1.293800000000000
H       3.091200000000000     -0.655800000000000     -1.364600000000000
H      -1.274500000000000     -0.923500000000000     -1.401100000000000
H       4.527700000000000     -0.887800000000000      1.322800000000000
H       0.920000000000000     -2.120800000000000     -1.488100000000000
H       0.561200000000000     -3.114700000000000     -0.074200000000000
H       0.326800000000000      1.188800000000000      0.381300000000000
H       0.770600000000000      0.555900000000000     -1.207300000000000
H       2.477400000000000     -2.309400000000000      1.136900000000000
H       2.926400000000000     -2.944400000000000     -0.447700000000000
H       2.683900000000000      1.359400000000000     -0.000100000000000
H       2.330000000000000      0.366400000000000      1.417600000000000
H      -1.664200000000000      1.131600000000000     -0.092400000000000
H      -2.028400000000000      0.181400000000000      1.351700000000000
H      -1.907000000000000     -2.504000000000000      1.143000000000000
H      -1.463800000000000     -3.185300000000000     -0.423700000000000
H      -4.212900000000000     -1.277900000000000      1.264800000000000
H      -4.052400000000000      0.990300000000000      0.269300000000000
H      -3.576400000000000      0.303700000000000     -1.280500000000000
H      -3.458600000000000     -2.359800000000000     -1.487300000000000
H      -3.873000000000000     -3.310900000000000     -0.063100000000000
H       4.951700000000000     -2.865500000000000     -0.095500000000000
H       5.295900000000000     -1.833400000000000     -1.485500000000000
H       5.120200000000000      0.842100000000000     -1.131500000000000
H       4.675800000000000      1.423900000000000      0.476700000000000
H       6.869200000000000     -2.067800000000000      1.130000000000000
H       7.369800000000000     -2.641300000000000     -0.444200000000000
H       7.060900000000000      1.621300000000000      0.118100000000000
H       6.698300000000000      0.588800000000000      1.480800000000000
H       7.483600000000000     -0.368100000000000     -1.324100000000000
H      -6.030200000000000     -2.236500000000000     -0.304200000000000
H      -5.700300000000000     -0.883900000000000     -1.380800000000000
H      -6.218400000000000      0.703000000000000      0.519000000000000
H      -6.510300000000000     -0.678200000000000      1.577200000000000
H      -8.366199999999999     -1.427700000000000      0.085700000000000
H      -8.030500000000000     -0.081600000000000     -1.002900000000000
H     -10.629500000000000     -0.562300000000000      0.160300000000000
H      -8.526300000000001      1.529000000000000      0.906600000000000
H      -8.876700000000000      0.139900000000000      1.928300000000000
H     -11.255200000000000      0.337700000000000      2.354700000000000
H     -11.019800000000000      1.989700000000000      1.789200000000000
H     -10.150700000000001      2.334200000000000     -0.716500000000000
H      -9.861100000000000      0.899000000000000     -1.694100000000000
H     -12.639699999999999      2.884600000000000     -0.080400000000000
H     -13.099900000000000     -0.014000000000000      0.791200000000000
H     -13.401199999999999      1.429100000000000      1.755300000000000
H     -11.995799999999999      1.981600000000000     -2.279500000000000
H     -12.226699999999999      0.329000000000000     -1.714900000000000
H       9.150900000000000      1.505900000000000     -0.121400000000000
H       9.619800000000000      0.341800000000000     -1.385900000000000
H     -14.654100000000000      0.797600000000000     -1.068200000000000
H     -14.445200000000000      2.433800000000000     -1.716200000000000
H     -15.022800000000000      2.206800000000000     -0.058800000000000
H      11.384600000000001     -0.554200000000000      0.122800000000000
H      10.903600000000001      0.563500000000000      1.381900000000000
H      11.476200000000000      2.511600000000000     -0.107300000000000
H      11.922400000000000      1.409800000000000     -1.392700000000000
H      13.270700000000000      1.565200000000000      1.350500000000000
H      13.719500000000000      0.431700000000000      0.049600000000000
H      15.993800000000000      3.189600000000000     -0.332600000000000
H      15.898700000000000      1.438200000000000     -0.049600000000000
H      15.429900000000000      2.592100000000000      1.242500000000000
