98

O      -2.878700000000000      2.769300000000000      1.030000000000000
O      -2.051500000000000      1.354800000000000     -0.592600000000000
C       4.923200000000000      0.374900000000000     -2.952600000000000
C       3.677900000000000      1.178700000000000     -3.342400000000000
C       4.589200000000000     -1.010200000000000     -2.391800000000000
C       2.819500000000000      1.574900000000000     -2.138800000000000
C       5.825100000000000     -1.858200000000000     -2.076200000000000
C      -4.972000000000000      1.491900000000000      1.393300000000000
C      -5.136900000000000      0.993100000000000     -0.055600000000000
C       1.603300000000000      2.399300000000000     -2.564600000000000
C       6.800500000000000     -1.263500000000000     -1.054800000000000
C      -6.546800000000000      0.531200000000000     -0.442500000000000
C       0.719300000000000      2.731700000000000     -1.361000000000000
C       6.133600000000000     -0.839700000000000      0.255700000000000
C      -7.129200000000000     -0.607500000000000      0.401000000000000
C      -0.562400000000000      3.452800000000000     -1.791200000000000
C       7.172300000000000     -0.454200000000000      1.313600000000000
C      -3.486600000000000      1.682000000000000      1.752100000000000
C      -6.251500000000000     -1.856300000000000      0.539200000000000
C       0.555100000000000     -1.756800000000000      0.160500000000000
C       0.151900000000000     -0.921400000000000      1.377900000000000
C      -0.592500000000000     -1.982000000000000     -0.830700000000000
C       1.303100000000000     -0.681200000000000      2.360600000000000
C      -5.757400000000000      2.783300000000000      1.633700000000000
C      -1.506600000000000      3.721800000000000     -0.617900000000000
C       6.554100000000000      0.228000000000000      2.538600000000000
C      -5.902100000000000     -2.513100000000000     -0.798400000000000
C      -1.727700000000000     -2.843300000000000     -0.269900000000000
C       2.406100000000000      0.220900000000000      1.796900000000000
C      -2.808300000000000     -3.098600000000000     -1.325800000000000
C       3.418900000000000      0.671200000000000      2.857900000000000
C      -2.156900000000000      2.463300000000000     -0.087200000000000
C       5.572700000000000     -0.641700000000000      3.269500000000000
C      -5.154300000000000     -3.797300000000000     -0.583100000000000
C      -3.854800000000000     -4.043500000000000     -0.808600000000000
C       4.250300000000000     -0.454500000000000      3.405200000000000
H       5.507600000000000      0.953100000000000     -2.228600000000000
H       5.551300000000000      0.255100000000000     -3.843900000000000
H       4.002300000000000      2.087600000000000     -3.863900000000000
H       3.077100000000000      0.601700000000000     -4.055700000000000
H       3.979600000000000     -1.554000000000000     -3.124300000000000
H       3.976100000000000     -0.923500000000000     -1.489200000000000
H       3.423600000000000      2.149000000000000     -1.426000000000000
H       2.469600000000000      0.678100000000000     -1.617300000000000
H       6.372200000000000     -2.058100000000000     -3.005800000000000
H       5.483100000000000     -2.833000000000000     -1.706000000000000
H      -5.358400000000000      0.728100000000000      2.078100000000000
H      -4.439000000000000      0.166700000000000     -0.233600000000000
H      -4.847800000000000      1.790700000000000     -0.751500000000000
H       1.021100000000000      1.832800000000000     -3.301700000000000
H       1.931100000000000      3.325500000000000     -3.051300000000000
H       7.318800000000000     -0.403700000000000     -1.495900000000000
H       7.573000000000000     -2.014100000000000     -0.845700000000000
H      -6.527600000000000      0.220400000000000     -1.494400000000000
H      -7.236400000000000      1.382500000000000     -0.402900000000000
H       1.277000000000000      3.360400000000000     -0.656200000000000
H       0.472200000000000      1.804300000000000     -0.833100000000000
H       5.510700000000000     -1.660400000000000      0.630100000000000
H       5.473600000000000      0.016000000000000      0.073500000000000
H      -8.092599999999999     -0.899300000000000     -0.035900000000000
H      -7.359000000000000     -0.231500000000000      1.405200000000000
H      -1.080900000000000      2.864200000000000     -2.557900000000000
H      -0.292600000000000      4.410700000000000     -2.252200000000000
H       7.904600000000000      0.234200000000000      0.873600000000000
H       7.727000000000000     -1.348600000000000      1.624000000000000
H      -3.398100000000000      1.931600000000000      2.815800000000000
H      -2.925500000000000      0.750500000000000      1.607600000000000
H      -6.790400000000000     -2.577200000000000      1.168200000000000
H      -5.331900000000000     -1.608600000000000      1.083200000000000
H       0.949900000000000     -2.725300000000000      0.490400000000000
H       1.364700000000000     -1.252500000000000     -0.378400000000000
H      -0.647100000000000     -1.433300000000000      1.925600000000000
H      -0.255400000000000      0.041700000000000      1.050800000000000
H      -0.180400000000000     -2.473900000000000     -1.720800000000000
H      -0.987000000000000     -1.015600000000000     -1.162900000000000
H       0.885600000000000     -0.213200000000000      3.260800000000000
H       1.722100000000000     -1.645800000000000      2.669400000000000
H      -5.582100000000000      3.160200000000000      2.647100000000000
H      -6.833900000000000      2.615400000000000      1.531400000000000
H      -5.468700000000000      3.567800000000000      0.926200000000000
H      -0.959200000000000      4.209100000000000      0.196400000000000
H      -2.308700000000000      4.388900000000000     -0.953100000000000
H       6.110700000000000      1.179300000000000      2.230600000000000
H       7.359000000000000      0.487200000000000      3.237600000000000
H      -5.333300000000000     -1.823500000000000     -1.426900000000000
H      -6.822200000000000     -2.741400000000000     -1.350100000000000
H      -2.187100000000000     -2.348900000000000      0.593800000000000
H      -1.316700000000000     -3.797100000000000      0.084100000000000
H       1.946300000000000      1.118400000000000      1.364700000000000
H       2.933200000000000     -0.289600000000000      0.982900000000000
H      -2.356300000000000     -3.549200000000000     -2.217800000000000
H      -3.237100000000000     -2.143500000000000     -1.643000000000000
H       2.890000000000000      1.147600000000000      3.692500000000000
H       4.045100000000000      1.452200000000000      2.417300000000000
H      -5.752800000000000     -4.621600000000000     -0.197600000000000
H       5.999300000000000     -1.523000000000000      3.746100000000000
H      -3.501300000000000     -5.050900000000000     -0.592400000000000
H       3.709100000000000     -1.196300000000000      3.990100000000000
