99

N      -0.302900000000000     -0.385800000000000     -0.476900000000000
N       6.699700000000000      2.144300000000000     -1.241700000000000
C      -1.210800000000000     -0.086400000000000      0.635600000000000
C       0.759500000000000      0.628900000000000     -0.556000000000000
C       0.275100000000000     -1.731000000000000     -0.316700000000000
C      -4.660000000000000      0.909400000000000      0.319200000000000
C      -1.629800000000000      1.394500000000000      0.607100000000000
C      -2.359800000000000     -1.109500000000000      0.685100000000000
C       1.499200000000000      0.646400000000000      0.788400000000000
C       1.641300000000000      0.297300000000000     -1.769000000000000
C       4.490800000000000      1.970600000000000     -0.223200000000000
C      -6.124400000000000      1.342200000000000      0.502300000000000
C      -3.911400000000000      2.016700000000000     -0.438300000000000
C      -4.636100000000000     -0.468300000000000     -0.360400000000000
C      -2.401500000000000      1.859300000000000     -0.631500000000000
C      -3.281100000000000     -1.157300000000000     -0.537500000000000
C       2.246200000000000      1.955700000000000      1.074100000000000
C       2.790000000000000      1.270800000000000     -2.027800000000000
C       3.766400000000000      1.813000000000000      1.123600000000000
C       4.080800000000000      0.927000000000000     -1.274100000000000
C       0.588900000000000     -1.899100000000000      1.181800000000000
C      -0.741100000000000     -2.751300000000000     -0.858200000000000
C       6.004100000000000      1.878800000000000      0.023400000000000
C       1.357200000000000     -3.157100000000000      1.599300000000000
C      -0.139900000000000     -3.924200000000000     -1.637700000000000
C      -6.763800000000000      1.503800000000000     -0.902100000000000
C      -6.150600000000000      2.670700000000000      1.278200000000000
C      -6.856400000000000      0.265400000000000      1.322300000000000
C       6.349600000000000      0.456500000000000      0.524100000000000
C       0.570300000000000     -4.460700000000000      1.472900000000000
C       1.105900000000000     -4.597900000000000     -1.074600000000000
C       0.929100000000000     -5.315600000000000      0.258900000000000
C       6.416100000000000      2.955200000000000      1.036500000000000
C      -8.226100000000001      1.932300000000000     -0.923000000000000
C       7.825600000000000      0.205200000000000      0.816000000000000
H      -0.795600000000000     -0.148400000000000      1.642800000000000
H       0.348800000000000      1.615100000000000     -0.790900000000000
H       1.192400000000000     -1.901400000000000     -0.863500000000000
H      -4.231900000000000      0.820300000000000      1.322200000000000
H      -0.787700000000000      2.073300000000000      0.780100000000000
H      -2.242300000000000      1.586900000000000      1.498400000000000
H      -2.977800000000000     -0.800300000000000      1.540500000000000
H      -2.117800000000000     -2.103200000000000      1.046100000000000
H       2.269400000000000     -0.131100000000000      0.788700000000000
H       0.867400000000000      0.616800000000000      1.672000000000000
H       0.992800000000000      0.320100000000000     -2.657300000000000
H       2.105900000000000     -0.687300000000000     -1.778800000000000
H       4.258300000000000      2.971400000000000     -0.615300000000000
H      -4.023800000000000      2.976100000000000      0.074600000000000
H      -4.305600000000000      2.152500000000000     -1.448900000000000
H      -5.066500000000000     -0.432000000000000     -1.364800000000000
H      -5.231900000000000     -1.186700000000000      0.209900000000000
H      -2.013900000000000      2.848800000000000     -0.912700000000000
H      -2.189400000000000      1.235200000000000     -1.503800000000000
H      -2.801500000000000     -0.759800000000000     -1.435000000000000
H      -3.498400000000000     -2.209300000000000     -0.767600000000000
H       1.932200000000000      2.306600000000000      2.068300000000000
H       1.952700000000000      2.757700000000000      0.388000000000000
H       2.471900000000000      2.305500000000000     -1.861100000000000
H       3.018200000000000      1.212300000000000     -3.101400000000000
H       4.090300000000000      2.611100000000000      1.800200000000000
H       3.996600000000000      0.874100000000000      1.631600000000000
H       4.835200000000000      0.806200000000000     -2.055600000000000
H       3.988700000000000     -0.061000000000000     -0.808400000000000
H      -0.317400000000000     -2.020400000000000      1.779400000000000
H       1.153100000000000     -1.181500000000000      1.741100000000000
H      -1.384300000000000     -2.286300000000000     -1.608200000000000
H      -1.353400000000000     -3.239100000000000     -0.107500000000000
H       1.605500000000000     -3.044600000000000      2.665100000000000
H       2.323400000000000     -3.209300000000000      1.085300000000000
H       0.122500000000000     -3.557300000000000     -2.639800000000000
H      -0.920100000000000     -4.679800000000000     -1.797900000000000
H      -6.246600000000000      2.259700000000000     -1.498000000000000
H      -6.736200000000000      0.571300000000000     -1.470700000000000
H      -5.467800000000000      2.655900000000000      2.135200000000000
H      -5.911000000000000      3.535700000000000      0.651600000000000
H      -7.152400000000000      2.867300000000000      1.679000000000000
H      -7.132000000000000     -0.610700000000000      0.726400000000000
H      -6.264300000000000     -0.063900000000000      2.183700000000000
H      -7.800100000000000      0.656000000000000      1.722000000000000
H       6.050500000000000     -0.306300000000000     -0.203400000000000
H       5.831100000000000      0.218800000000000      1.456300000000000
H      -0.508800000000000     -4.286800000000000      1.518900000000000
H       0.786400000000000     -5.073100000000000      2.359200000000000
H       1.945500000000000     -3.897900000000000     -1.028300000000000
H       1.419500000000000     -5.355100000000000     -1.806500000000000
H       1.873000000000000     -5.832100000000000      0.478900000000000
H       0.175700000000000     -6.105800000000000      0.151500000000000
H       7.502900000000000      3.108300000000000      1.023000000000000
H       5.961300000000000      3.927000000000000      0.811200000000000
H       6.170000000000000      2.680300000000000      2.067700000000000
H       6.256200000000000      2.908400000000000     -1.748000000000000
H       6.707400000000000      1.331500000000000     -1.852100000000000
H      -8.864300000000000      1.202800000000000     -0.415700000000000
H      -8.365000000000000      2.906400000000000     -0.444900000000000
H      -8.578099999999999      2.017700000000000     -1.956600000000000
H       8.192700000000000      0.857200000000000      1.614100000000000
H       7.971100000000000     -0.829900000000000      1.142800000000000
H       8.444300000000000      0.361800000000000     -0.072700000000000
