99

O       0.087000000000000      0.544800000000000      1.814900000000000
O       0.698400000000000     -1.579000000000000      2.458500000000000
C       0.077900000000000      0.211700000000000      0.428800000000000
C       1.374000000000000     -0.548500000000000      0.107700000000000
C      -1.142700000000000     -0.681600000000000      0.168700000000000
C      -0.006300000000000      1.498100000000000     -0.386500000000000
C       1.358800000000000     -0.969600000000000     -1.380700000000000
C       2.587400000000000      0.346200000000000      0.454500000000000
C      -1.056700000000000     -1.937200000000000      1.065400000000000
C      -2.443700000000000      0.128900000000000      0.378800000000000
C       1.192600000000000      2.409400000000000     -0.059000000000000
C      -0.121700000000000      1.152200000000000     -1.885000000000000
C       1.346500000000000     -2.484300000000000     -1.602800000000000
C       3.824600000000000     -0.436000000000000      0.921500000000000
C      -2.202300000000000     -2.946500000000000      0.912200000000000
C      -3.168700000000000      0.506900000000000     -0.922700000000000
C       1.005900000000000      3.315800000000000      1.165200000000000
C      -0.186200000000000      2.308400000000000     -2.896800000000000
C       2.640400000000000     -3.213700000000000     -1.235900000000000
C       5.085700000000000     -0.188100000000000      0.093400000000000
C      -2.298000000000000     -3.605800000000000     -0.469300000000000
C      -3.591600000000000     -0.664900000000000     -1.816000000000000
C      -0.226300000000000      4.231600000000000      1.209000000000000
C      -1.414900000000000      3.229800000000000     -2.861400000000000
C       0.153300000000000     -0.506900000000000      2.680100000000000
C       3.836300000000000     -2.876400000000000     -2.137100000000000
C       5.065800000000000     -0.758800000000000     -1.325300000000000
C      -3.731000000000000     -4.022000000000000     -0.824500000000000
C      -4.630800000000000     -1.603900000000000     -1.190900000000000
C      -0.301100000000000      5.380400000000000      0.191800000000000
C      -1.619300000000000      4.131300000000000     -1.639100000000000
C       5.044900000000000     -2.292000000000000     -1.392600000000000
C      -4.516800000000000     -3.041500000000000     -1.713700000000000
C      -0.428400000000000      5.028600000000000     -1.293900000000000
C      -0.543200000000000     -0.159800000000000      3.950200000000000
C      -1.180200000000000      1.185400000000000      4.120100000000000
C      -0.569800000000000     -1.093500000000000      4.912500000000000
H       1.526500000000000     -1.470000000000000      0.648900000000000
H      -1.155400000000000     -1.065800000000000     -0.842100000000000
H      -0.896900000000000      2.039600000000000     -0.102300000000000
H       2.184200000000000     -0.551400000000000     -1.958200000000000
H       0.433200000000000     -0.848200000000000     -1.912400000000000
H       2.407500000000000      1.024100000000000      1.289500000000000
H       2.954100000000000      0.790100000000000     -0.468800000000000
H      -1.349900000000000     -1.720500000000000      2.087400000000000
H      -0.179300000000000     -2.557800000000000      0.891500000000000
H      -2.283600000000000      1.036500000000000      0.970400000000000
H      -3.147600000000000     -0.429200000000000      1.001200000000000
H       1.104200000000000      3.143200000000000     -0.851000000000000
H       2.232800000000000      2.281800000000000     -0.296200000000000
H      -0.899600000000000      0.453600000000000     -2.177700000000000
H       0.862900000000000      0.862600000000000     -2.233200000000000
H       1.143200000000000     -2.684200000000000     -2.664900000000000
H       0.522900000000000     -2.952100000000000     -1.060000000000000
H       3.635000000000000     -1.507300000000000      1.005500000000000
H       4.051700000000000     -0.115900000000000      1.948200000000000
H      -3.155900000000000     -2.489200000000000      1.187200000000000
H      -2.060300000000000     -3.747800000000000      1.652300000000000
H      -2.613600000000000      1.235500000000000     -1.495500000000000
H      -4.084100000000000      1.041400000000000     -0.632300000000000
H       1.891400000000000      3.963600000000000      1.229900000000000
H       1.033200000000000      2.721800000000000      2.083100000000000
H      -0.178500000000000      1.850200000000000     -3.897600000000000
H       0.731400000000000      2.906100000000000     -2.879500000000000
H       2.437800000000000     -4.287400000000000     -1.351900000000000
H       2.875200000000000     -3.086900000000000     -0.177700000000000
H       5.272400000000000      0.892000000000000      0.038500000000000
H       5.942700000000000     -0.615200000000000      0.629700000000000
H      -1.675100000000000     -4.509600000000000     -0.439200000000000
H      -1.879400000000000     -2.996500000000000     -1.270500000000000
H      -2.715300000000000     -1.212800000000000     -2.166600000000000
H      -4.034000000000000     -0.243100000000000     -2.728900000000000
H      -0.216500000000000      4.706700000000000      2.200600000000000
H      -1.149300000000000      3.645700000000000      1.205200000000000
H      -2.322600000000000      2.642700000000000     -3.036000000000000
H      -1.337200000000000      3.890600000000000     -3.736200000000000
H       3.549500000000000     -2.238500000000000     -2.980600000000000
H       4.169700000000000     -3.821600000000000     -2.587500000000000
H       5.993600000000000     -0.423400000000000     -1.809300000000000
H       4.266500000000000     -0.311600000000000     -1.918500000000000
H      -4.304800000000000     -4.230100000000000      0.087000000000000
H      -3.681700000000000     -4.973700000000000     -1.369700000000000
H      -5.620900000000000     -1.217600000000000     -1.468100000000000
H      -4.617300000000000     -1.593400000000000     -0.100200000000000
H       0.582400000000000      6.019000000000000      0.318600000000000
H      -1.162300000000000      6.004900000000000      0.464200000000000
H      -1.953200000000000      3.534200000000000     -0.793400000000000
H      -2.477400000000000      4.784300000000000     -1.851200000000000
H       5.153900000000000     -2.748800000000000     -0.402700000000000
H       5.939100000000000     -2.596600000000000     -1.953700000000000
H      -4.094300000000000     -3.046300000000000     -2.725900000000000
H      -5.532100000000000     -3.447600000000000     -1.812200000000000
H      -0.585800000000000      5.977900000000000     -1.827200000000000
H       0.521200000000000      4.688900000000000     -1.701900000000000
H      -1.646300000000000      1.294300000000000      5.105300000000000
H      -1.961700000000000      1.340900000000000      3.370200000000000
H      -0.434200000000000      1.980300000000000      4.021900000000000
H      -1.062100000000000     -0.901400000000000      5.860600000000000
H      -0.110700000000000     -2.069200000000000      4.793900000000000
