99

O      -2.446500000000000      1.080100000000000     -2.130700000000000
O       4.505200000000000      0.600800000000000      1.020400000000000
C      -0.040900000000000      0.402200000000000      1.739500000000000
C      -0.973200000000000      0.371200000000000      0.529700000000000
C       1.408400000000000      0.287400000000000      1.271000000000000
C      -2.226400000000000      1.229200000000000      0.783000000000000
C      -1.353300000000000     -1.063600000000000      0.158300000000000
C       1.790400000000000      1.481600000000000      0.377100000000000
C       1.656200000000000     -1.040400000000000      0.552200000000000
C      -3.474800000000000      0.737500000000000      0.023600000000000
C      -2.175600000000000     -1.121900000000000     -1.146400000000000
C       2.873300000000000      1.148400000000000     -0.668400000000000
C       3.146200000000000     -1.235600000000000      0.200900000000000
C      -3.106300000000000      0.099800000000000     -1.324400000000000
C       3.859000000000000      0.090900000000000     -0.149600000000000
C      -0.405200000000000     -0.723200000000000      2.749200000000000
C      -0.226000000000000      1.757900000000000      2.455500000000000
C      -4.476900000000000      1.882000000000000     -0.140900000000000
C      -2.972300000000000     -2.428400000000000     -1.186900000000000
C       3.588000000000000      2.426200000000000     -1.113100000000000
C       3.270400000000000     -2.243700000000000     -0.944400000000000
C       0.462900000000000     -0.788100000000000      4.010500000000000
C      -3.850200000000000      2.993000000000000     -0.995800000000000
C      -5.744100000000000      1.358300000000000     -0.832100000000000
C      -4.843400000000000      2.444700000000000      1.240200000000000
C      -3.733900000000000     -2.525900000000000     -2.517600000000000
C      -3.974900000000000     -2.456200000000000     -0.023000000000000
C      -2.012100000000000     -3.621200000000000     -1.060800000000000
C       2.559100000000000      3.423100000000000     -1.666200000000000
C       4.610600000000000      2.087200000000000     -2.207200000000000
C       4.312400000000000      3.052400000000000      0.087500000000000
C       4.754800000000000     -2.498400000000000     -1.247500000000000
C       2.598400000000000     -3.565600000000000     -0.542000000000000
C       2.583000000000000     -1.684200000000000     -2.199400000000000
C       0.057500000000000     -1.957200000000000      4.897700000000000
H      -0.515900000000000      0.782300000000000     -0.371600000000000
H       2.079100000000000      0.324000000000000      2.138500000000000
H      -2.527000000000000      1.156000000000000      1.834100000000000
H      -1.976000000000000      2.273000000000000      0.602100000000000
H      -0.541800000000000     -1.773400000000000      0.061900000000000
H      -1.951000000000000     -1.442100000000000      0.983800000000000
H       0.949300000000000      1.922100000000000     -0.160200000000000
H       2.083900000000000      2.276000000000000      1.064500000000000
H       1.347500000000000     -1.894200000000000      1.158900000000000
H       1.088700000000000     -1.010700000000000     -0.365700000000000
H      -3.947900000000000     -0.011300000000000      0.665200000000000
H      -1.453700000000000     -1.124000000000000     -1.976300000000000
H       2.338800000000000      0.759100000000000     -1.539200000000000
H       3.631500000000000     -1.656200000000000      1.093900000000000
H      -4.000600000000000     -0.158500000000000     -1.880400000000000
H       4.660900000000000     -0.064400000000000     -0.862700000000000
H      -0.353600000000000     -1.720400000000000      2.303700000000000
H      -1.448200000000000     -0.595300000000000      3.071200000000000
H      -0.227000000000000      2.618600000000000      1.778300000000000
H      -1.115900000000000      1.807500000000000      3.091700000000000
H       0.612600000000000      1.937200000000000      3.142000000000000
H       0.372900000000000      0.136900000000000      4.589100000000000
H       1.518600000000000     -0.918400000000000      3.755800000000000
H      -4.437100000000000      3.913100000000000     -0.862700000000000
H      -3.926800000000000      2.792500000000000     -2.069800000000000
H      -2.824000000000000      3.279700000000000     -0.768700000000000
H      -5.599600000000000      1.135600000000000     -1.893500000000000
H      -6.540100000000000      2.112000000000000     -0.791900000000000
H      -6.128500000000000      0.459000000000000     -0.338300000000000
H      -5.652400000000000      3.180700000000000      1.159400000000000
H      -4.004900000000000      2.958200000000000      1.722100000000000
H      -5.192300000000000      1.653500000000000      1.913500000000000
H      -4.080800000000000     -3.553300000000000     -2.684900000000000
H      -4.635900000000000     -1.908700000000000     -2.558100000000000
H      -3.093500000000000     -2.264000000000000     -3.367400000000000
H      -4.767700000000000     -1.711500000000000     -0.128900000000000
H      -3.558900000000000     -2.410400000000000      0.983400000000000
H      -4.506600000000000     -3.418500000000000     -0.050600000000000
H      -2.539700000000000     -4.565800000000000     -1.240300000000000
H      -1.570700000000000     -3.706500000000000     -0.062400000000000
H      -1.199300000000000     -3.559300000000000     -1.793300000000000
H       3.059100000000000      4.285700000000000     -2.122900000000000
H       1.902300000000000      3.825500000000000     -0.888000000000000
H       1.934000000000000      2.964600000000000     -2.440800000000000
H       4.997500000000000      3.005200000000000     -2.666400000000000
H       5.487400000000000      1.551500000000000     -1.831100000000000
H       4.158500000000000      1.493100000000000     -3.009100000000000
H       4.578800000000000      4.088200000000000     -0.168400000000000
H       5.281200000000000      2.583800000000000      0.289800000000000
H       3.760100000000000      3.133000000000000      1.022400000000000
H       5.331400000000000     -2.657300000000000     -0.329300000000000
H       5.232000000000000     -1.701300000000000     -1.824800000000000
H       4.870200000000000     -3.403700000000000     -1.856600000000000
H       2.785300000000000     -4.342000000000000     -1.293600000000000
H       1.510300000000000     -3.478000000000000     -0.457500000000000
H       2.988400000000000     -3.936300000000000      0.412600000000000
H       2.659000000000000     -2.438100000000000     -2.996600000000000
H       3.095600000000000     -0.811200000000000     -2.610600000000000
H       1.514000000000000     -1.483700000000000     -2.125900000000000
H      -2.279400000000000      0.679400000000000     -3.000800000000000
H       5.171600000000000     -0.052000000000000      1.295000000000000
H       0.179200000000000     -2.910300000000000      4.373200000000000
H       0.681000000000000     -1.983700000000000      5.797000000000000
H      -0.987300000000000     -1.867500000000000      5.211700000000000
