99

O      -5.013300000000000     -0.712000000000000      0.094200000000000
O      -7.047100000000000     -0.820800000000000     -0.975300000000000
C       1.704000000000000      0.565100000000000      0.664800000000000
C       2.350200000000000      0.835400000000000     -0.742000000000000
C       0.281800000000000      1.193800000000000      0.702400000000000
C      -0.622900000000000      0.597200000000000     -0.430100000000000
C      -2.050100000000000      1.297000000000000     -0.458500000000000
C      -2.696600000000000      1.075900000000000      0.964800000000000
C       3.805100000000000      0.357400000000000     -0.502900000000000
C       1.553100000000000      0.065100000000000     -1.801200000000000
C       2.758100000000000      1.196900000000000      1.592300000000000
C       0.076800000000000      0.507700000000000     -1.820600000000000
C      -0.411400000000000      1.077700000000000      2.070600000000000
C       4.114800000000000      0.863100000000000      0.929900000000000
C      -1.815300000000000      1.686400000000000      2.076000000000000
C      -4.233200000000000      1.397600000000000      1.101200000000000
C      -2.943100000000000      0.615700000000000     -1.528400000000000
C       1.627900000000000     -0.949200000000000      1.054700000000000
C       2.381600000000000      2.340100000000000     -1.163000000000000
C       4.858600000000000      0.791000000000000     -1.516300000000000
C      -1.893700000000000      2.792400000000000     -0.836900000000000
C      -5.012500000000000      0.711100000000000     -0.060400000000000
C      -4.421300000000000      1.001300000000000     -1.438800000000000
C      -4.757600000000000      0.831200000000000      2.450900000000000
C      -4.562600000000000      2.904300000000000      1.127500000000000
C       6.294500000000000      0.705700000000000     -0.957700000000000
C       4.747400000000000     -0.069100000000000     -2.780000000000000
C       6.672800000000000     -0.694800000000000     -0.465200000000000
C      -6.102200000000000     -1.362400000000000     -0.414000000000000
C       8.075699999999999     -0.768300000000000      0.152300000000000
C      -5.980500000000000     -2.872400000000000     -0.184100000000000
C       8.545199999999999     -2.163600000000000      0.605800000000000
C      -7.222800000000000     -3.579100000000000     -0.750100000000000
C      -4.734200000000000     -3.402200000000000     -0.905700000000000
C      -5.888600000000000     -3.155400000000000      1.321200000000000
C       7.588300000000000     -2.708600000000000      1.670200000000000
C       9.972899999999999     -2.151000000000000      1.152600000000000
H       0.391800000000000      2.269100000000000      0.535000000000000
H      -0.817800000000000     -0.449500000000000     -0.154800000000000
H      -2.642300000000000     -0.013300000000000      1.130000000000000
H       3.810700000000000     -0.739200000000000     -0.475400000000000
H       1.611000000000000     -1.015900000000000     -1.633800000000000
H       1.952100000000000      0.231300000000000     -2.804800000000000
H       2.629600000000000      2.284100000000000      1.654100000000000
H       2.713600000000000      0.815700000000000      2.618300000000000
H       0.023400000000000      1.468500000000000     -2.339300000000000
H      -0.472900000000000     -0.197900000000000     -2.455700000000000
H       0.193400000000000      1.570700000000000      2.840600000000000
H      -0.508400000000000      0.028200000000000      2.368100000000000
H       4.717800000000000      1.776100000000000      0.946500000000000
H       4.635300000000000      0.103800000000000      1.521300000000000
H      -2.246200000000000      1.494900000000000      3.063600000000000
H      -1.746600000000000      2.774100000000000      1.978400000000000
H      -2.859900000000000     -0.475000000000000     -1.434400000000000
H      -2.587000000000000      0.863100000000000     -2.536100000000000
H       2.595300000000000     -1.456900000000000      1.014300000000000
H       0.946100000000000     -1.520700000000000      0.420900000000000
H       1.289300000000000     -1.071400000000000      2.089000000000000
H       3.027300000000000      2.946600000000000     -0.520300000000000
H       1.397400000000000      2.813500000000000     -1.154700000000000
H       2.741500000000000      2.450200000000000     -2.192600000000000
H       4.738700000000000      1.837900000000000     -1.809300000000000
H      -1.380100000000000      3.377700000000000     -0.071500000000000
H      -2.846500000000000      3.283700000000000     -1.026200000000000
H      -1.328700000000000      2.918200000000000     -1.764700000000000
H      -6.045500000000000      1.083900000000000     -0.031700000000000
H      -4.555200000000000      2.056600000000000     -1.695600000000000
H      -4.959700000000000      0.434600000000000     -2.208400000000000
H      -5.853600000000000      0.852600000000000      2.482800000000000
H      -4.403800000000000      1.415800000000000      3.306200000000000
H      -4.445300000000000     -0.207600000000000      2.603400000000000
H      -5.610500000000000      3.062600000000000      1.412600000000000
H      -4.444800000000000      3.392500000000000      0.161800000000000
H      -3.951700000000000      3.442300000000000      1.858700000000000
H       6.999500000000000      0.999200000000000     -1.747400000000000
H       6.452100000000000      1.436000000000000     -0.157500000000000
H       3.915300000000000      0.256400000000000     -3.406800000000000
H       5.644800000000000      0.031100000000000     -3.401400000000000
H       4.616000000000000     -1.132900000000000     -2.557200000000000
H       6.636000000000000     -1.399400000000000     -1.304300000000000
H       5.950700000000000     -1.051500000000000      0.269400000000000
H       8.120200000000001     -0.078400000000000      1.005500000000000
H       8.795299999999999     -0.387200000000000     -0.584200000000000
H       8.520600000000000     -2.839300000000000     -0.258300000000000
H      -8.138600000000000     -3.221500000000000     -0.265200000000000
H      -7.329200000000000     -3.394900000000000     -1.825500000000000
H      -7.166800000000000     -4.663200000000000     -0.600700000000000
H      -3.815800000000000     -2.964800000000000     -0.497800000000000
H      -4.763200000000000     -3.155900000000000     -1.973400000000000
H      -4.652600000000000     -4.490600000000000     -0.810600000000000
H      -6.743400000000000     -2.725200000000000      1.855700000000000
H      -5.870300000000000     -4.232300000000000      1.522200000000000
H      -4.981700000000000     -2.723000000000000      1.758600000000000
H       7.480900000000000     -2.010800000000000      2.507600000000000
H       7.958600000000000     -3.658700000000000      2.071300000000000
H       6.595300000000000     -2.907400000000000      1.256100000000000
H      10.054500000000001     -1.504800000000000      2.033100000000000
H      10.291300000000000     -3.158800000000000      1.439000000000000
H      10.672300000000000     -1.781100000000000      0.395500000000000
