99

N      -3.027400000000000     -0.001900000000000      0.926200000000000
N       4.048700000000000     -0.576900000000000      0.628800000000000
C      -4.081100000000000     -0.686500000000000      0.166700000000000
C      -3.535900000000000     -1.334100000000000     -1.167600000000000
C      -2.009700000000000     -1.710100000000000     -1.174000000000000
C      -2.699200000000000      1.274700000000000      0.297400000000000
C       0.565300000000000     -2.291300000000000      0.557500000000000
C       2.115700000000000     -2.192500000000000      0.224700000000000
C      -1.685400000000000     -3.049800000000000     -0.456200000000000
C      -0.182200000000000     -3.340200000000000     -0.312900000000000
C      -5.191400000000000      0.342300000000000     -0.121700000000000
C      -4.685500000000000     -1.769200000000000      1.089000000000000
C      -4.410800000000000     -2.506700000000000     -1.655700000000000
C       2.780600000000000     -1.105700000000000      1.130700000000000
C      -3.705000000000000      2.358800000000000      0.769100000000000
C      -1.377800000000000     -1.756000000000000     -2.572300000000000
C      -3.450500000000000      0.198200000000000      2.309700000000000
C      -2.706700000000000      1.075700000000000     -1.221800000000000
C      -1.283200000000000      1.682100000000000      0.742100000000000
C       0.281600000000000     -2.570900000000000      2.045900000000000
C       2.350200000000000     -1.848700000000000     -1.261700000000000
C       2.792200000000000     -3.556100000000000      0.520300000000000
C      -3.868600000000000      3.593700000000000     -0.149900000000000
C       5.207200000000000      1.650900000000000      0.265700000000000
C       4.291200000000000      0.762400000000000      1.163600000000000
C       4.879100000000000      1.470600000000000     -1.265200000000000
C       5.149800000000000     -1.473800000000000      0.977300000000000
C       6.668400000000000      1.264500000000000      0.587800000000000
C       5.019500000000000      3.131900000000000      0.675300000000000
C      -2.547700000000000      4.348300000000000     -0.329500000000000
C      -4.908000000000000      4.554200000000000      0.439000000000000
C       3.417900000000000      1.776600000000000     -1.631200000000000
C       5.788500000000000      2.285600000000000     -2.197200000000000
H      -3.711200000000000     -0.691300000000000     -2.027700000000000
H      -1.452100000000000     -0.966100000000000     -0.620900000000000
H       0.175500000000000     -1.294400000000000      0.351600000000000
H      -2.140000000000000     -3.062600000000000      0.535500000000000
H      -2.129500000000000     -3.884800000000000     -1.011600000000000
H       0.248500000000000     -3.444000000000000     -1.308800000000000
H      -0.082900000000000     -4.331500000000000      0.148100000000000
H      -5.082100000000000      1.218000000000000     -0.750100000000000
H      -5.945500000000000     -0.207300000000000     -0.710600000000000
H      -5.786400000000000      0.584100000000000      0.768500000000000
H      -3.943000000000000     -2.484600000000000      1.452500000000000
H      -5.463900000000000     -2.345500000000000      0.577000000000000
H      -5.227800000000000     -1.374800000000000      1.956400000000000
H      -4.359600000000000     -3.379800000000000     -0.998900000000000
H      -4.084400000000000     -2.839900000000000     -2.647900000000000
H      -5.460300000000000     -2.210400000000000     -1.754900000000000
H       2.881900000000000     -1.448600000000000      2.169000000000000
H       2.053200000000000     -0.283000000000000      1.166400000000000
H      -3.315900000000000      2.766500000000000      1.717900000000000
H      -4.702000000000000      2.084200000000000      1.091200000000000
H      -1.613800000000000     -2.694600000000000     -3.085400000000000
H      -0.290700000000000     -1.656300000000000     -2.528400000000000
H      -1.740500000000000     -0.945100000000000     -3.212100000000000
H      -2.758500000000000      0.856600000000000      2.849400000000000
H      -4.457900000000000      0.585700000000000      2.488500000000000
H      -3.348000000000000     -0.737500000000000      2.874800000000000
H      -1.876200000000000      0.526000000000000     -1.643800000000000
H      -2.353400000000000      2.037600000000000     -1.621500000000000
H      -3.617500000000000      1.066900000000000     -1.813300000000000
H      -0.597300000000000      0.829100000000000      0.687500000000000
H      -0.830700000000000      2.446000000000000      0.107600000000000
H      -1.241600000000000      2.046200000000000      1.774200000000000
H       0.683500000000000     -3.539500000000000      2.358900000000000
H       0.711000000000000     -1.798700000000000      2.690300000000000
H      -0.794000000000000     -2.575900000000000      2.248000000000000
H       1.824700000000000     -0.928400000000000     -1.535000000000000
H       2.007400000000000     -2.642700000000000     -1.930600000000000
H       3.410100000000000     -1.716000000000000     -1.502600000000000
H       3.053600000000000     -3.669800000000000      1.577500000000000
H       3.686400000000000     -3.719000000000000     -0.086900000000000
H       2.139800000000000     -4.396300000000000      0.263700000000000
H      -4.243000000000000      3.295200000000000     -1.135000000000000
H       4.653500000000000      0.726900000000000      2.200700000000000
H       3.336400000000000      1.302200000000000      1.231400000000000
H       5.059300000000000      0.418900000000000     -1.525100000000000
H       5.035400000000000     -2.468700000000000      0.558300000000000
H       5.272700000000000     -1.577000000000000      2.062000000000000
H       6.100800000000000     -1.155700000000000      0.560000000000000
H       7.341300000000000      2.109200000000000      0.392600000000000
H       6.814100000000000      0.993200000000000      1.638700000000000
H       7.038000000000000      0.457700000000000     -0.049900000000000
H       5.236200000000000      3.263700000000000      1.742300000000000
H       5.690500000000000      3.801200000000000      0.127900000000000
H       3.992700000000000      3.474400000000000      0.513200000000000
H      -2.039400000000000      4.506400000000000      0.627700000000000
H      -1.858200000000000      3.873400000000000     -1.026100000000000
H      -2.738000000000000      5.342000000000000     -0.753600000000000
H      -4.598400000000000      4.922100000000000      1.423300000000000
H      -5.056500000000000      5.419900000000000     -0.215400000000000
H      -5.877500000000000      4.057100000000000      0.551600000000000
H       2.704800000000000      1.234800000000000     -1.007400000000000
H       3.220400000000000      1.489300000000000     -2.670300000000000
H       3.196300000000000      2.845000000000000     -1.543000000000000
H       5.626500000000000      3.362300000000000     -2.089000000000000
H       5.587300000000000      2.029800000000000     -3.243800000000000
H       6.846000000000000      2.075700000000000     -2.012700000000000
