99

O       2.330400000000000     -3.370500000000000      1.031800000000000
N       4.542600000000000     -4.060700000000000      0.935800000000000
C       0.964600000000000      0.438400000000000     -0.031100000000000
C      -1.243500000000000     -0.433000000000000     -1.095700000000000
C      -0.302900000000000     -0.427900000000000      0.130800000000000
C       0.961300000000000      1.567100000000000      1.010900000000000
C      -2.614200000000000     -0.970100000000000     -0.651100000000000
C       2.259900000000000     -0.382700000000000      0.129000000000000
C       2.494100000000000     -1.462000000000000     -0.947900000000000
C      -0.727500000000000     -1.301900000000000     -2.263400000000000
C      -0.287500000000000      2.466000000000000      0.842000000000000
C       2.334300000000000      2.269900000000000      1.008700000000000
C       2.672200000000000     -0.857100000000000     -2.355400000000000
C       0.246100000000000     -0.598600000000000     -3.217600000000000
C      -2.554900000000000     -2.509100000000000     -0.536200000000000
C      -3.713600000000000     -0.514700000000000     -1.633200000000000
C       1.606600000000000     -1.284800000000000     -3.370900000000000
C       3.740300000000000     -2.275500000000000     -0.568100000000000
C      -0.510400000000000      3.208900000000000     -0.486600000000000
C       2.484600000000000      3.398100000000000      2.033400000000000
C      -3.721300000000000     -3.141600000000000      0.241000000000000
C      -4.127500000000000      0.958200000000000     -1.523200000000000
C       0.507400000000000      4.278900000000000     -0.892000000000000
C       3.487300000000000      4.488400000000000      1.641300000000000
C      -3.705900000000000     -2.828800000000000      1.744300000000000
C      -4.595200000000000      1.472000000000000     -0.153800000000000
C       0.679100000000000      5.407300000000000      0.128100000000000
C       3.298100000000000      5.198300000000000      0.292300000000000
C       2.054300000000000      6.081300000000000      0.115500000000000
C       3.456200000000000     -3.275600000000000      0.535800000000000
C      -5.018500000000000     -2.265000000000000      2.311800000000000
C      -5.967500000000000      0.984100000000000      0.332400000000000
C      -5.217200000000000     -0.762900000000000      2.064100000000000
C      -6.066400000000000     -0.460600000000000      0.828100000000000
C       5.890800000000000     -3.984000000000000      0.378000000000000
C       4.363800000000000     -5.050000000000000      1.991300000000000
H       0.985100000000000      0.905400000000000     -1.016500000000000
H      -1.373200000000000      0.592100000000000     -1.441300000000000
H      -0.856700000000000     -0.140300000000000      1.030900000000000
H      -0.003200000000000     -1.459400000000000      0.349500000000000
H       0.865900000000000      1.108200000000000      2.006900000000000
H      -2.849200000000000     -0.567000000000000      0.334100000000000
H       3.147100000000000      0.246100000000000      0.030000000000000
H       2.284900000000000     -0.820100000000000      1.134100000000000
H       1.645000000000000     -2.148600000000000     -0.962900000000000
H      -1.558800000000000     -1.617700000000000     -2.903100000000000
H      -0.287600000000000     -2.232800000000000     -1.891700000000000
H      -0.327800000000000      3.184100000000000      1.666200000000000
H      -1.191800000000000      1.869900000000000      1.009600000000000
H       2.604000000000000      2.578100000000000     -0.000500000000000
H       3.118800000000000      1.577800000000000      1.330800000000000
H       3.642600000000000     -1.160200000000000     -2.769900000000000
H       2.715900000000000      0.238000000000000     -2.317900000000000
H       0.366800000000000      0.463900000000000     -2.987800000000000
H      -0.222100000000000     -0.613200000000000     -4.212300000000000
H      -2.568100000000000     -2.968700000000000     -1.531800000000000
H      -1.631300000000000     -2.838100000000000     -0.047700000000000
H      -3.398700000000000     -0.682300000000000     -2.669400000000000
H      -4.604800000000000     -1.134300000000000     -1.533500000000000
H       1.499200000000000     -2.375900000000000     -3.383000000000000
H       1.991900000000000     -1.011500000000000     -4.362600000000000
H       4.065200000000000     -2.860800000000000     -1.437600000000000
H       4.556000000000000     -1.609700000000000     -0.265000000000000
H      -1.495400000000000      3.691600000000000     -0.429000000000000
H      -0.583000000000000      2.499500000000000     -1.313100000000000
H       2.820100000000000      2.957500000000000      2.982700000000000
H       1.535600000000000      3.865800000000000      2.283900000000000
H      -4.679500000000000     -2.893800000000000     -0.218500000000000
H      -3.629100000000000     -4.230700000000000      0.129600000000000
H      -4.924600000000000      1.143400000000000     -2.254800000000000
H      -3.287600000000000      1.585100000000000     -1.845800000000000
H       0.171000000000000      4.727600000000000     -1.836400000000000
H       1.450000000000000      3.796000000000000     -1.142700000000000
H       4.488400000000000      4.037500000000000      1.639400000000000
H       3.500500000000000      5.245300000000000      2.435700000000000
H      -2.871600000000000     -2.169900000000000      2.011500000000000
H      -3.508100000000000     -3.773100000000000      2.269500000000000
H      -4.676900000000000      2.563900000000000     -0.251400000000000
H      -3.825600000000000      1.320900000000000      0.607300000000000
H      -0.074000000000000      6.175900000000000     -0.093300000000000
H       0.444000000000000      5.092700000000000      1.142900000000000
H       4.165600000000000      5.862400000000000      0.170600000000000
H       3.385800000000000      4.487700000000000     -0.534000000000000
H       2.159100000000000      6.611700000000000     -0.840200000000000
H       2.063500000000000      6.857100000000000      0.891600000000000
H      -4.977800000000000     -2.408700000000000      3.399700000000000
H      -5.878400000000000     -2.845400000000000      1.958100000000000
H      -6.698100000000000      1.126800000000000     -0.473700000000000
H      -6.287700000000000      1.642800000000000      1.150200000000000
H      -4.246700000000000     -0.262800000000000      2.033800000000000
H      -5.740800000000000     -0.337700000000000      2.930500000000000
H      -5.850600000000000     -1.148900000000000      0.016800000000000
H      -7.115800000000000     -0.655900000000000      1.087200000000000
H       5.990700000000000     -3.255400000000000     -0.425500000000000
H       6.160900000000000     -4.969600000000000     -0.013200000000000
H       6.582400000000000     -3.713500000000000      1.181700000000000
H       4.601100000000000     -6.039700000000000      1.590100000000000
H       3.340100000000000     -5.059900000000000      2.373500000000000
H       5.046200000000000     -4.814800000000000      2.813400000000000
