99

O      -2.067100000000000     -1.466100000000000      0.286400000000000
O      -1.366100000000000     -2.710200000000000      2.101200000000000
C      -1.613900000000000      2.845000000000000     -2.236500000000000
C      -0.139800000000000      2.555200000000000     -1.939000000000000
C      -2.215700000000000      3.912600000000000     -1.318900000000000
C       0.582700000000000      1.874600000000000     -3.106700000000000
C      -2.242600000000000      3.567400000000000      0.171600000000000
C       0.022200000000000      0.513800000000000     -3.530300000000000
C       0.074600000000000     -0.582000000000000     -2.462500000000000
C      -3.083200000000000      2.346300000000000      0.557200000000000
C       1.493300000000000     -0.871000000000000     -1.968600000000000
C       1.543700000000000     -2.119500000000000     -1.084200000000000
C      -4.536600000000000      2.437300000000000      0.090200000000000
C       2.894300000000000     -2.299700000000000     -0.384100000000000
C      -5.477700000000000      1.462200000000000      0.803600000000000
C       4.052000000000000     -2.584900000000000     -1.345400000000000
C       5.399800000000000     -2.771800000000000     -0.635000000000000
C      -5.113300000000000     -0.023500000000000      0.724400000000000
C       5.879400000000000     -1.570300000000000      0.189100000000000
C      -4.924100000000000     -0.534600000000000     -0.704500000000000
C       6.156800000000000     -0.323400000000000     -0.656600000000000
C      -5.027200000000000     -2.059000000000000     -0.825500000000000
C       6.506300000000000      0.913300000000000      0.180700000000000
C       5.374200000000000      1.440200000000000      1.073400000000000
C      -4.033700000000000     -2.898100000000000      0.006800000000000
C       4.145900000000000      1.904300000000000      0.284300000000000
C       3.015500000000000      2.437200000000000      1.170700000000000
C       2.354800000000000      1.342300000000000      2.013600000000000
C       1.128900000000000      1.872500000000000      2.759000000000000
C      -2.569500000000000     -2.639900000000000     -0.378000000000000
C       0.519500000000000      0.852600000000000      3.726600000000000
C      -4.357400000000000     -4.383400000000000     -0.190900000000000
C       0.076000000000000     -0.476700000000000      3.107800000000000
C      -0.980100000000000     -0.314500000000000      2.016800000000000
C      -1.472000000000000     -1.648200000000000      1.503300000000000
H      -1.709700000000000      3.205500000000000     -3.268400000000000
H      -2.198200000000000      1.920400000000000     -2.174000000000000
H      -1.646700000000000      4.842900000000000     -1.444000000000000
H      -3.231800000000000      4.139100000000000     -1.662500000000000
H      -0.051600000000000      1.946300000000000     -1.032400000000000
H       0.381300000000000      3.498300000000000     -1.732100000000000
H       1.644900000000000      1.775600000000000     -2.854200000000000
H       0.546600000000000      2.543200000000000     -3.976500000000000
H      -1.219200000000000      3.421000000000000      0.535200000000000
H      -2.631400000000000      4.439200000000000      0.713500000000000
H       0.584400000000000      0.172100000000000     -4.408800000000000
H      -1.015300000000000      0.630200000000000     -3.864900000000000
H      -0.353600000000000     -1.496400000000000     -2.891300000000000
H      -0.562000000000000     -0.305000000000000     -1.615900000000000
H      -2.620000000000000      1.440400000000000      0.153500000000000
H      -3.057600000000000      2.255200000000000      1.649800000000000
H       1.861600000000000     -0.011400000000000     -1.398700000000000
H       2.156200000000000     -1.002400000000000     -2.830800000000000
H       1.309900000000000     -3.009300000000000     -1.680800000000000
H       0.771100000000000     -2.043400000000000     -0.311400000000000
H      -4.913200000000000      3.452400000000000      0.268600000000000
H      -4.589900000000000      2.272300000000000     -0.991900000000000
H       2.809600000000000     -3.130700000000000      0.326900000000000
H       3.099000000000000     -1.400500000000000      0.205100000000000
H      -5.543500000000000      1.743500000000000      1.862300000000000
H      -6.485300000000000      1.598400000000000      0.390600000000000
H       3.829100000000000     -3.501600000000000     -1.905600000000000
H       4.141100000000000     -1.787700000000000     -2.089200000000000
H       6.160600000000000     -3.017400000000000     -1.386100000000000
H       5.329300000000000     -3.641600000000000      0.030000000000000
H      -4.208800000000000     -0.208400000000000      1.312300000000000
H      -5.917700000000000     -0.588800000000000      1.211700000000000
H       6.805700000000000     -1.854000000000000      0.704600000000000
H       5.151000000000000     -1.358300000000000      0.976200000000000
H      -5.700400000000000     -0.100800000000000     -1.347500000000000
H      -3.965100000000000     -0.191500000000000     -1.107100000000000
H       5.309800000000000     -0.092500000000000     -1.307800000000000
H       7.001300000000000     -0.537800000000000     -1.323800000000000
H      -6.049300000000000     -2.350700000000000     -0.549000000000000
H      -4.917500000000000     -2.321300000000000     -1.886300000000000
H       6.821200000000000      1.715200000000000     -0.498800000000000
H       7.373500000000000      0.684200000000000      0.812200000000000
H       5.761600000000000      2.288400000000000      1.651900000000000
H       5.097700000000000      0.674700000000000      1.803900000000000
H      -4.180300000000000     -2.662400000000000      1.067600000000000
H       4.449900000000000      2.700200000000000     -0.406600000000000
H       3.751600000000000      1.088400000000000     -0.328800000000000
H       2.257800000000000      2.892100000000000      0.520500000000000
H       3.395500000000000      3.233400000000000      1.821700000000000
H       3.071600000000000      0.943200000000000      2.739200000000000
H       2.058000000000000      0.517300000000000      1.357300000000000
H       0.372000000000000      2.203600000000000      2.039200000000000
H       1.414000000000000      2.760800000000000      3.336500000000000
H      -1.928900000000000     -3.497900000000000     -0.140200000000000
H      -2.472600000000000     -2.471000000000000     -1.456200000000000
H      -0.341900000000000      1.318200000000000      4.221800000000000
H       1.248700000000000      0.637500000000000      4.517800000000000
H      -4.220400000000000     -4.685300000000000     -1.234900000000000
H      -5.393100000000000     -4.598700000000000      0.092800000000000
H      -3.707900000000000     -5.008400000000000      0.431500000000000
H      -0.326300000000000     -1.105800000000000      3.912200000000000
H       0.941800000000000     -1.019800000000000      2.710200000000000
H      -0.554100000000000      0.238400000000000      1.172800000000000
H      -1.843700000000000      0.233400000000000      2.406200000000000
