99

N       4.391300000000000     -1.024300000000000      1.255700000000000
N      -4.530400000000000      2.499700000000000      0.838700000000000
C      -2.134800000000000      2.617800000000000      0.092500000000000
C       1.904100000000000     -0.905200000000000      1.510200000000000
C       3.128400000000000     -1.780100000000000      1.174200000000000
C      -3.516800000000000      1.947400000000000     -0.069900000000000
C      -2.252000000000000      4.138900000000000     -0.046600000000000
C       2.086400000000000     -0.246000000000000      2.884700000000000
C      -1.142600000000000      2.007200000000000     -0.917800000000000
C       0.585000000000000     -1.703300000000000      1.494100000000000
C       3.425900000000000      0.473400000000000      2.965100000000000
C      -3.328100000000000      4.673900000000000      0.888100000000000
C       4.579500000000000     -0.458800000000000      2.598400000000000
C      -4.655800000000000      3.957800000000000      0.664100000000000
C       5.521500000000000     -1.878500000000000      0.849600000000000
C      -5.859700000000000      1.881600000000000      0.662900000000000
C       0.279600000000000      2.557800000000000     -0.786800000000000
C       0.213400000000000     -2.262200000000000      0.117200000000000
C       6.848800000000000     -1.128900000000000      0.637700000000000
C      -5.952800000000000      0.376800000000000      0.968400000000000
C       1.261500000000000      1.775400000000000     -1.660300000000000
C      -1.098800000000000     -3.050000000000000      0.178200000000000
C       6.756500000000000      0.107900000000000     -0.264400000000000
C       2.677700000000000      2.341700000000000     -1.544600000000000
C      -5.821200000000000     -0.512600000000000     -0.273500000000000
C      -1.456500000000000     -3.648200000000000     -1.184900000000000
C       6.368800000000000     -0.217900000000000     -1.709200000000000
C       3.704100000000000      1.398700000000000     -2.174100000000000
C      -6.158600000000000     -1.971400000000000      0.051200000000000
C      -2.569400000000000     -4.697600000000000     -1.107400000000000
C       6.205700000000000      1.029500000000000     -2.587800000000000
C       5.108900000000000      2.005300000000000     -2.144500000000000
C      -6.041600000000000     -2.888600000000000     -1.170400000000000
C      -3.924000000000000     -4.190000000000000     -0.605400000000000
C      -4.604200000000000     -3.227200000000000     -1.583300000000000
H      -1.768000000000000      2.395000000000000      1.104700000000000
H       1.833700000000000     -0.106900000000000      0.760700000000000
H       3.159300000000000     -2.652800000000000      1.840400000000000
H       3.018200000000000     -2.154700000000000      0.150400000000000
H      -3.373900000000000      0.885300000000000      0.152700000000000
H      -3.851400000000000      2.029900000000000     -1.112500000000000
H      -2.498900000000000      4.404600000000000     -1.082200000000000
H      -1.301800000000000      4.627000000000000      0.195200000000000
H       2.035300000000000     -1.005500000000000      3.675300000000000
H       1.275700000000000      0.467700000000000      3.073400000000000
H      -1.501400000000000      2.176400000000000     -1.941100000000000
H      -1.118800000000000      0.919900000000000     -0.769500000000000
H      -0.229500000000000     -1.051000000000000      1.835200000000000
H       0.649100000000000     -2.527700000000000      2.215900000000000
H       3.420000000000000      1.337600000000000      2.288400000000000
H       3.574200000000000      0.862800000000000      3.978700000000000
H      -3.008900000000000      4.545800000000000      1.930200000000000
H      -3.456600000000000      5.749900000000000      0.723800000000000
H       5.500400000000000      0.132100000000000      2.643400000000000
H       4.666500000000000     -1.255600000000000      3.348600000000000
H      -5.377700000000000      4.357000000000000      1.387300000000000
H      -5.034600000000000      4.196700000000000     -0.338700000000000
H       5.275100000000000     -2.378600000000000     -0.095500000000000
H       5.679500000000000     -2.680100000000000      1.583200000000000
H      -6.257700000000000      2.089600000000000     -0.338900000000000
H      -6.540300000000000      2.373200000000000      1.371400000000000
H       0.599600000000000      2.501000000000000      0.260700000000000
H       0.302900000000000      3.613200000000000     -1.080500000000000
H       1.003900000000000     -2.927200000000000     -0.245800000000000
H       0.119300000000000     -1.441800000000000     -0.603300000000000
H       7.580400000000000     -1.828900000000000      0.214700000000000
H       7.254500000000000     -0.822000000000000      1.609200000000000
H      -6.937800000000000      0.191300000000000      1.417200000000000
H      -5.215400000000000      0.087900000000000      1.727300000000000
H       1.254800000000000      0.721900000000000     -1.359400000000000
H       0.939900000000000      1.809100000000000     -2.708400000000000
H      -1.905100000000000     -2.390000000000000      0.518500000000000
H      -1.000900000000000     -3.853800000000000      0.918000000000000
H       7.733300000000000      0.607500000000000     -0.267200000000000
H       6.050500000000000      0.817200000000000      0.177400000000000
H       2.933300000000000      2.490900000000000     -0.488100000000000
H       2.718900000000000      3.324300000000000     -2.029500000000000
H      -4.812000000000000     -0.448700000000000     -0.685300000000000
H      -6.506300000000000     -0.154900000000000     -1.052000000000000
H      -0.569600000000000     -4.136800000000000     -1.607800000000000
H      -1.730400000000000     -2.848000000000000     -1.881500000000000
H       5.449900000000000     -0.810000000000000     -1.742400000000000
H       7.151300000000000     -0.849000000000000     -2.149100000000000
H       3.425700000000000      1.176100000000000     -3.211000000000000
H       3.680300000000000      0.453300000000000     -1.622600000000000
H      -7.194600000000000     -2.016000000000000      0.410400000000000
H      -5.529200000000000     -2.332700000000000      0.871100000000000
H      -2.239000000000000     -5.509300000000000     -0.446900000000000
H      -2.699000000000000     -5.146000000000000     -2.100300000000000
H       7.160300000000000      1.569300000000000     -2.617300000000000
H       6.000000000000000      0.707100000000000     -3.616100000000000
H       5.129500000000000      2.873900000000000     -2.815000000000000
H       5.332700000000000      2.393000000000000     -1.144800000000000
H      -6.553300000000000     -2.421000000000000     -2.020700000000000
H      -6.580900000000000     -3.821400000000000     -0.963500000000000
H      -3.809900000000000     -3.724700000000000      0.378600000000000
H      -4.574100000000000     -5.062300000000000     -0.460800000000000
H      -4.013300000000000     -2.313000000000000     -1.695300000000000
H      -4.640900000000000     -3.700600000000000     -2.572500000000000
