99

N       4.579700000000000     -2.891100000000000      0.243300000000000
N       1.184300000000000      4.890700000000000      0.212000000000000
C       0.856200000000000     -1.035200000000000     -1.105600000000000
C      -0.197200000000000     -0.257700000000000     -0.372200000000000
C      -0.571300000000000     -1.496900000000000     -1.131400000000000
C       1.888700000000000     -1.794100000000000     -0.312200000000000
C      -0.618600000000000      1.063900000000000     -0.898700000000000
C      -0.986800000000000     -2.704000000000000     -0.374000000000000
C       2.461700000000000     -2.951000000000000     -1.123500000000000
C       3.054000000000000     -0.890800000000000      0.076700000000000
C       0.364800000000000      2.155700000000000     -0.563800000000000
C       3.533200000000000     -3.768100000000000     -0.355400000000000
C       4.150100000000000     -1.621300000000000      0.895500000000000
C       0.224600000000000      3.332800000000000     -1.522800000000000
C       0.133700000000000      2.688200000000000      0.846200000000000
C      -2.481400000000000     -3.037300000000000     -0.556600000000000
C       1.213600000000000      4.489600000000000     -1.223600000000000
C       1.118900000000000      3.817600000000000      1.244900000000000
C       2.829100000000000     -4.701400000000000      0.656600000000000
C       4.190300000000000     -4.683700000000000     -1.426000000000000
C       5.353100000000000     -0.637300000000000      0.931800000000000
C       3.666600000000000     -1.786800000000000      2.354900000000000
C       5.607400000000000     -3.623400000000000      0.993200000000000
C      -3.396500000000000     -1.888300000000000     -0.126200000000000
C       0.720600000000000      5.680300000000000     -2.093000000000000
C       2.616100000000000      4.105600000000000     -1.749200000000000
C       0.542400000000000      4.413800000000000      2.559900000000000
C       2.487600000000000      3.193200000000000      1.602200000000000
C       2.117400000000000      5.974400000000000      0.542800000000000
C      -4.871100000000000     -2.265500000000000     -0.284500000000000
C      -5.832300000000000     -1.143700000000000      0.121700000000000
C      -7.306000000000000     -1.548700000000000      0.034000000000000
C      -8.263999999999999     -0.446900000000000      0.497200000000000
C      -9.733100000000000     -0.872200000000000      0.482200000000000
C     -10.635500000000000      0.239700000000000      0.923800000000000
H       1.258100000000000     -0.618000000000000     -2.022700000000000
H      -0.212500000000000     -0.296800000000000      0.710200000000000
H      -1.069600000000000     -1.412600000000000     -2.090600000000000
H       1.433400000000000     -2.180600000000000      0.604700000000000
H      -1.618800000000000      1.301500000000000     -0.515200000000000
H      -0.730800000000000      0.995000000000000     -1.989200000000000
H      -0.421600000000000     -3.574400000000000     -0.722100000000000
H      -0.785900000000000     -2.600900000000000      0.699100000000000
H       1.658200000000000     -3.613900000000000     -1.465900000000000
H       2.906400000000000     -2.543500000000000     -2.044100000000000
H       3.495500000000000     -0.468600000000000     -0.838300000000000
H       2.674200000000000     -0.029300000000000      0.642500000000000
H       1.381500000000000      1.756400000000000     -0.645100000000000
H       0.363500000000000      2.983700000000000     -2.555100000000000
H      -0.807600000000000      3.709500000000000     -1.468800000000000
H      -0.897100000000000      3.065900000000000      0.917400000000000
H       0.202300000000000      1.866600000000000      1.571000000000000
H      -2.714600000000000     -3.937100000000000      0.025200000000000
H      -2.671700000000000     -3.277200000000000     -1.610200000000000
H       2.279900000000000     -4.158500000000000      1.426500000000000
H       2.099000000000000     -5.341700000000000      0.145900000000000
H       3.534100000000000     -5.373800000000000      1.156500000000000
H       3.427900000000000     -5.206400000000000     -2.016900000000000
H       4.801300000000000     -4.101100000000000     -2.125800000000000
H       4.824900000000000     -5.459100000000000     -0.985100000000000
H       5.823000000000000     -0.547900000000000     -0.054900000000000
H       5.028500000000000      0.367600000000000      1.229700000000000
H       6.123100000000000     -0.939200000000000      1.649100000000000
H       3.398400000000000     -0.813200000000000      2.784100000000000
H       2.782400000000000     -2.418900000000000      2.442600000000000
H       4.444900000000000     -2.205800000000000      3.001200000000000
H       6.460200000000000     -2.987700000000000      1.246400000000000
H       6.044700000000000     -4.434000000000000      0.404000000000000
H       5.223200000000000     -4.054300000000000      1.922800000000000
H      -3.195900000000000     -0.994700000000000     -0.727700000000000
H      -3.194000000000000     -1.628100000000000      0.919600000000000
H       0.549200000000000      5.364600000000000     -3.129700000000000
H      -0.226600000000000      6.082800000000000     -1.714800000000000
H       1.445300000000000      6.499700000000000     -2.135100000000000
H       3.036500000000000      3.234400000000000     -1.245700000000000
H       2.573000000000000      3.858300000000000     -2.817300000000000
H       3.331900000000000      4.928600000000000     -1.651400000000000
H      -0.383200000000000      4.970600000000000      2.371300000000000
H       0.304200000000000      3.620300000000000      3.279100000000000
H       1.246400000000000      5.085100000000000      3.062200000000000
H       2.373100000000000      2.436300000000000      2.388200000000000
H       2.961300000000000      2.692700000000000      0.757000000000000
H       3.191200000000000      3.937500000000000      1.989700000000000
H       1.934000000000000      6.382200000000000      1.540600000000000
H       1.999100000000000      6.834000000000000     -0.122400000000000
H       3.163800000000000      5.657400000000000      0.497600000000000
H      -5.066800000000000     -2.542500000000000     -1.327800000000000
H      -5.080900000000000     -3.154200000000000      0.323800000000000
H      -5.657900000000000     -0.268700000000000     -0.516300000000000
H      -5.606500000000000     -0.835900000000000      1.150200000000000
H      -7.545300000000000     -1.825900000000000     -0.999900000000000
H      -7.468100000000000     -2.443400000000000      0.647700000000000
H      -7.990400000000000     -0.139000000000000      1.514200000000000
H      -8.132099999999999      0.432600000000000     -0.145400000000000
H     -10.012400000000000     -1.189500000000000     -0.529300000000000
H      -9.871100000000000     -1.738800000000000      1.139300000000000
H     -11.680800000000000     -0.085200000000000      0.906100000000000
H     -10.544700000000001      1.110400000000000      0.266100000000000
H     -10.401800000000000      0.559600000000000      1.944500000000000
