99

N       6.157400000000000     -0.849200000000000     -0.092900000000000
N      -5.807200000000000      0.168900000000000      0.969300000000000
C      -3.782900000000000     -0.785500000000000      2.070800000000000
C       5.591200000000000      1.102700000000000      1.298000000000000
C       5.878000000000000      0.593800000000000     -0.126200000000000
C      -5.069400000000000     -1.068400000000000      1.271200000000000
C      -4.119000000000000     -0.010600000000000      3.353400000000000
C       6.799700000000000      0.812800000000000      2.204100000000000
C      -3.019000000000000     -2.077300000000000      2.426000000000000
C       5.240200000000000      2.601500000000000      1.351600000000000
C       7.203300000000000     -0.656900000000000      2.124400000000000
C      -4.948500000000000      1.226600000000000      3.031900000000000
C       7.375600000000000     -1.122100000000000      0.677300000000000
C      -6.182800000000000      0.868600000000000      2.206200000000000
C       6.211500000000000     -1.452700000000000     -1.430400000000000
C      -2.581800000000000     -2.943100000000000      1.237400000000000
C      -6.997300000000000     -0.078900000000000      0.139000000000000
C       4.132500000000000      3.075600000000000      0.403700000000000
C       4.849900000000000     -1.475200000000000     -2.152000000000000
C      -1.582300000000000     -2.248400000000000      0.308400000000000
C      -6.716800000000000     -0.575600000000000     -1.289700000000000
C       2.816800000000000      2.297800000000000      0.512400000000000
C       3.732100000000000     -2.075100000000000     -1.291900000000000
C      -1.185600000000000     -3.164100000000000     -0.854400000000000
C      -6.066600000000000      0.435800000000000     -2.242000000000000
C       1.768600000000000      2.888300000000000     -0.433800000000000
C       2.379100000000000     -2.055300000000000     -2.005800000000000
C      -0.093100000000000     -2.569400000000000     -1.749000000000000
C       1.279500000000000     -2.570600000000000     -1.073700000000000
C      -4.706300000000000      0.973500000000000     -1.794600000000000
C       0.511700000000000      2.019900000000000     -0.526300000000000
C      -3.985400000000000      1.685900000000000     -2.940300000000000
C      -0.528800000000000      2.685700000000000     -1.429000000000000
C      -2.806000000000000      2.547000000000000     -2.482500000000000
C      -1.748400000000000      1.793800000000000     -1.670700000000000
H      -3.129100000000000     -0.147200000000000      1.461800000000000
H       4.733700000000000      0.542900000000000      1.697300000000000
H       4.999900000000000      0.784800000000000     -0.746500000000000
H       6.713600000000000      1.146900000000000     -0.575000000000000
H      -5.706700000000000     -1.774900000000000      1.819400000000000
H      -4.777400000000000     -1.551200000000000      0.335800000000000
H      -3.198700000000000      0.288000000000000      3.868800000000000
H      -4.680000000000000     -0.652500000000000      4.044600000000000
H       6.567300000000000      1.074000000000000      3.243100000000000
H       7.651500000000000      1.434700000000000      1.900300000000000
H      -3.647100000000000     -2.695600000000000      3.080600000000000
H      -2.129300000000000     -1.815700000000000      3.013200000000000
H       6.139500000000000      3.192800000000000      1.135800000000000
H       4.949200000000000      2.854100000000000      2.379600000000000
H       8.136600000000000     -0.813800000000000      2.677100000000000
H       6.436000000000000     -1.269100000000000      2.615400000000000
H      -5.256000000000000      1.716400000000000      3.962800000000000
H      -4.332100000000000      1.947800000000000      2.480000000000000
H       8.245900000000001     -0.631500000000000      0.222800000000000
H       7.580200000000000     -2.199400000000000      0.693700000000000
H      -6.868300000000000      0.257200000000000      2.807700000000000
H      -6.706100000000000      1.801400000000000      1.963200000000000
H       6.538700000000000     -2.496700000000000     -1.339500000000000
H       6.952300000000000     -0.943900000000000     -2.060100000000000
H      -3.455000000000000     -3.281100000000000      0.669100000000000
H      -2.113800000000000     -3.851500000000000      1.638500000000000
H      -7.574700000000000      0.850400000000000      0.046900000000000
H      -7.653600000000000     -0.803600000000000      0.639100000000000
H       4.498300000000000      3.034700000000000     -0.629500000000000
H       3.939700000000000      4.135800000000000      0.612500000000000
H       4.954400000000000     -2.065100000000000     -3.071200000000000
H       4.572500000000000     -0.463600000000000     -2.469600000000000
H      -2.014200000000000     -1.329100000000000     -0.101700000000000
H      -0.701300000000000     -1.961500000000000      0.891700000000000
H      -7.681800000000000     -0.859700000000000     -1.730600000000000
H      -6.126400000000000     -1.497800000000000     -1.278500000000000
H       2.445800000000000      2.332700000000000      1.543400000000000
H       2.973900000000000      1.244100000000000      0.260000000000000
H       3.637200000000000     -1.513100000000000     -0.355500000000000
H       3.992000000000000     -3.106200000000000     -1.022800000000000
H      -2.074400000000000     -3.351300000000000     -1.469900000000000
H      -0.856400000000000     -4.138200000000000     -0.472700000000000
H      -6.752200000000000      1.279100000000000     -2.392900000000000
H      -5.958200000000000     -0.052300000000000     -3.219000000000000
H       2.199600000000000      2.994900000000000     -1.437300000000000
H       1.500600000000000      3.895700000000000     -0.092000000000000
H       2.427400000000000     -2.675200000000000     -2.908700000000000
H       2.141100000000000     -1.032700000000000     -2.322300000000000
H      -0.366400000000000     -1.550700000000000     -2.048300000000000
H      -0.036400000000000     -3.167300000000000     -2.667000000000000
H       1.526200000000000     -3.589000000000000     -0.749300000000000
H       1.254100000000000     -1.943900000000000     -0.175300000000000
H      -4.080200000000000      0.149700000000000     -1.434200000000000
H      -4.847500000000000      1.679400000000000     -0.969000000000000
H       0.088400000000000      1.864000000000000      0.473100000000000
H       0.775700000000000      1.033600000000000     -0.926400000000000
H      -4.691000000000000      2.335300000000000     -3.473200000000000
H      -3.634600000000000      0.941200000000000     -3.665300000000000
H      -0.071700000000000      2.935400000000000     -2.394700000000000
H      -0.847900000000000      3.630900000000000     -0.972300000000000
H      -3.185500000000000      3.386300000000000     -1.886100000000000
H      -2.339700000000000      2.984200000000000     -3.374200000000000
H      -1.440800000000000      0.888300000000000     -2.206600000000000
H      -2.168100000000000      1.479900000000000     -0.708100000000000
