100

O       4.509100000000000     -0.992900000000000      1.449400000000000
N      13.577600000000000      0.219400000000000     -1.715200000000000
C      -3.847300000000000      1.141500000000000      0.024600000000000
C      -3.112800000000000      0.005700000000000     -0.715100000000000
C      -1.590100000000000      0.173200000000000     -0.723100000000000
C      -1.067600000000000      0.248500000000000      0.741400000000000
C      -5.308500000000000      0.689800000000000     -0.216000000000000
C      -3.396100000000000      1.103900000000000      1.491400000000000
C       0.498600000000000      0.461200000000000      0.786600000000000
C      -3.848400000000000     -0.093700000000000     -2.048000000000000
C      -1.869800000000000      1.252300000000000      1.614700000000000
C      -5.311400000000000      0.230700000000000     -1.693200000000000
C      -0.918600000000000     -0.992600000000000     -1.464300000000000
C      -6.395500000000000      1.710500000000000      0.088900000000000
C      -3.592700000000000      2.549000000000000     -0.569700000000000
C       1.203300000000000     -0.456200000000000     -0.222700000000000
C       0.996500000000000      0.117100000000000      2.222300000000000
C       0.549600000000000     -1.101300000000000     -1.204300000000000
C       0.878200000000000      1.923200000000000      0.449500000000000
C       2.697600000000000     -0.626000000000000     -0.073900000000000
C       2.515200000000000      0.011300000000000      2.354400000000000
C      -7.732900000000000      1.389700000000000     -0.613000000000000
C       3.088200000000000     -0.988700000000000      1.355300000000000
C      -6.620800000000000      1.795400000000000      1.603600000000000
C      -8.286700000000000      0.005600000000000     -0.260100000000000
C      -9.582100000000001     -0.343500000000000     -1.004900000000000
C       5.059600000000000     -2.197600000000000      0.937100000000000
C     -10.229100000000001     -1.694300000000000     -0.644400000000000
C       6.580800000000000     -2.148300000000000      1.013800000000000
C      -9.326900000000000     -2.882500000000000     -0.977900000000000
C     -10.582300000000000     -1.715000000000000      0.845900000000000
C       7.163800000000000     -0.978200000000000      0.214400000000000
C       8.693000000000000     -0.971600000000000      0.281400000000000
C       9.333299999999999      0.167700000000000     -0.517000000000000
C      10.861599999999999      0.189000000000000     -0.429300000000000
C      11.442800000000000      1.370700000000000     -1.213400000000000
C      12.970800000000001      1.427400000000000     -1.169500000000000
H      -3.319500000000000     -0.939100000000000     -0.183900000000000
H      -1.328700000000000      1.095500000000000     -1.253600000000000
H      -1.268000000000000     -0.742100000000000      1.181500000000000
H      -5.488000000000000     -0.211500000000000      0.389500000000000
H      -3.699800000000000      0.160200000000000      1.961700000000000
H      -3.851800000000000      1.908400000000000      2.073200000000000
H      -3.757600000000000     -1.090600000000000     -2.491400000000000
H      -3.460500000000000      0.629100000000000     -2.774600000000000
H      -1.604800000000000      2.281700000000000      1.356500000000000
H      -1.601200000000000      1.121800000000000      2.669100000000000
H      -5.657300000000000      1.011700000000000     -2.378600000000000
H      -5.935000000000000     -0.653900000000000     -1.850000000000000
H      -1.076400000000000     -0.869100000000000     -2.542600000000000
H      -1.381200000000000     -1.947100000000000     -1.184000000000000
H      -6.118900000000000      2.708000000000000     -0.267100000000000
H      -4.006200000000000      2.661000000000000     -1.576900000000000
H      -2.528500000000000      2.789700000000000     -0.639600000000000
H      -4.040200000000000      3.326700000000000      0.059300000000000
H       0.564000000000000     -0.841200000000000      2.541000000000000
H       0.642700000000000      0.867800000000000      2.939000000000000
H       1.099600000000000     -1.755300000000000     -1.876800000000000
H       1.961600000000000      2.066500000000000      0.377900000000000
H       0.454200000000000      2.243000000000000     -0.507900000000000
H       0.531400000000000      2.619200000000000      1.220100000000000
H       3.061300000000000     -1.384200000000000     -0.775700000000000
H       3.205000000000000      0.299400000000000     -0.375200000000000
H       2.779000000000000     -0.297800000000000      3.373400000000000
H       2.985200000000000      0.993100000000000      2.218600000000000
H      -8.475000000000000      2.148300000000000     -0.329800000000000
H      -7.634100000000000      1.481600000000000     -1.699900000000000
H       2.695600000000000     -1.983100000000000      1.611100000000000
H      -6.640300000000000      0.811300000000000      2.082900000000000
H      -5.847400000000000      2.397500000000000      2.083700000000000
H      -7.569500000000000      2.295000000000000      1.831100000000000
H      -8.482100000000001     -0.017400000000000      0.816700000000000
H      -7.553100000000000     -0.777200000000000     -0.456800000000000
H      -9.379600000000000     -0.330900000000000     -2.083700000000000
H     -10.315700000000000      0.453300000000000     -0.824800000000000
H       4.702000000000000     -3.045200000000000      1.533600000000000
H       4.767900000000000     -2.360900000000000     -0.104400000000000
H     -11.155700000000000     -1.789500000000000     -1.223900000000000
H       6.992100000000000     -3.095800000000000      0.647000000000000
H       6.882700000000000     -2.040600000000000      2.062900000000000
H      -9.024600000000000     -2.856400000000000     -2.030000000000000
H      -9.858200000000000     -3.825000000000000     -0.806700000000000
H      -8.421799999999999     -2.898400000000000     -0.362500000000000
H     -11.167800000000000     -0.832800000000000      1.125100000000000
H     -11.188200000000000     -2.598600000000000      1.075800000000000
H      -9.694200000000000     -1.758700000000000      1.484200000000000
H       6.781400000000000     -0.027100000000000      0.603200000000000
H       6.843900000000000     -1.052600000000000     -0.831800000000000
H       9.076499999999999     -1.928500000000000     -0.094100000000000
H       9.007300000000001     -0.894400000000000      1.329700000000000
H       9.031599999999999      0.082000000000000     -1.568300000000000
H       8.937799999999999      1.123500000000000     -0.151200000000000
H      11.250600000000000     -0.758800000000000     -0.818700000000000
H      11.169300000000000      0.259700000000000      0.620900000000000
H      11.045800000000000      2.308700000000000     -0.806300000000000
H      11.111100000000000      1.314700000000000     -2.258100000000000
H      13.317900000000000      2.295900000000000     -1.739800000000000
H      13.306400000000000      1.558900000000000     -0.135100000000000
H      13.289300000000001      0.099400000000000     -2.685300000000000
H      14.590999999999999      0.325800000000000     -1.728300000000000
