100

O       4.661800000000000      2.782300000000000     -0.924300000000000
O      -0.297800000000000      0.755500000000000      0.268900000000000
C       1.785000000000000     -0.705300000000000     -2.022200000000000
C       2.175500000000000     -2.173100000000000     -1.850800000000000
C       2.682900000000000      1.620100000000000     -2.629100000000000
C       3.018900000000000      0.144400000000000     -2.363100000000000
C       0.705400000000000     -0.558500000000000     -3.101900000000000
C       1.567600000000000      1.746000000000000     -3.676100000000000
C       0.338400000000000      0.903000000000000     -3.344500000000000
C       0.938200000000000     -3.032700000000000     -1.558700000000000
C       3.223500000000000     -2.329000000000000     -0.740400000000000
C       2.333800000000000      2.364600000000000     -1.337600000000000
C       1.309400000000000     -4.496200000000000     -1.330400000000000
C       3.590900000000000     -3.793600000000000     -0.513700000000000
C       3.467800000000000      2.292000000000000     -0.306800000000000
C      -2.191200000000000     -0.244000000000000      1.333700000000000
C       2.357700000000000     -4.646200000000000     -0.232300000000000
C       3.207800000000000      3.089000000000000      0.995500000000000
C      -4.776800000000000     -0.246900000000000     -0.131700000000000
C      -0.678600000000000     -0.037500000000000      1.385500000000000
C       1.195500000000000      0.438300000000000      3.170000000000000
C      -2.552000000000000     -1.360700000000000      0.346000000000000
C      -2.904000000000000      1.062600000000000      0.962600000000000
C      -4.063700000000000     -1.553200000000000      0.239400000000000
C      -4.415800000000000      0.870300000000000      0.855600000000000
C      -0.269000000000000      0.656100000000000      2.693200000000000
C       2.081000000000000      2.510500000000000      1.879700000000000
C       2.258400000000000      1.019300000000000      2.199600000000000
C      -6.289300000000000     -0.454000000000000     -0.182200000000000
C       1.505300000000000     -1.052400000000000      3.532600000000000
C       2.929500000000000      4.574400000000000      0.723600000000000
C      -7.067600000000000      0.818800000000000     -0.549600000000000
C       2.917500000000000     -1.236200000000000      4.106900000000000
C       0.501000000000000     -1.626300000000000      4.541800000000000
C      -8.570399999999999      0.530900000000000     -0.516600000000000
C      -6.676500000000000      1.367400000000000     -1.922600000000000
H       1.387800000000000     -0.350400000000000     -1.069600000000000
H       2.621300000000000     -2.534600000000000     -2.788600000000000
H       3.574400000000000      2.091500000000000     -3.063700000000000
H       3.463900000000000     -0.259400000000000     -3.284400000000000
H       3.809300000000000      0.065100000000000     -1.619300000000000
H       1.045200000000000     -1.009600000000000     -4.042700000000000
H      -0.221100000000000     -1.063300000000000     -2.812300000000000
H       1.960300000000000      1.421800000000000     -4.648800000000000
H       1.273100000000000      2.795300000000000     -3.796200000000000
H      -0.375600000000000      0.963700000000000     -4.174400000000000
H      -0.172400000000000      1.315800000000000     -2.468800000000000
H       0.233200000000000     -3.020300000000000     -2.395200000000000
H       0.409500000000000     -2.649200000000000     -0.677300000000000
H       2.848900000000000     -1.899100000000000      0.197100000000000
H       4.155100000000000     -1.812200000000000     -0.986300000000000
H       1.407900000000000      1.993200000000000     -0.902000000000000
H       2.156600000000000      3.411800000000000     -1.611000000000000
H       1.694900000000000     -4.925500000000000     -2.263500000000000
H       0.412600000000000     -5.066600000000000     -1.063100000000000
H       4.291200000000000     -3.872200000000000      0.325700000000000
H       4.108700000000000     -4.182100000000000     -1.399400000000000
H       3.679300000000000      1.259300000000000     -0.027500000000000
H      -2.547000000000000     -0.575000000000000      2.319000000000000
H       2.649100000000000     -5.698600000000000     -0.141200000000000
H       1.922100000000000     -4.350100000000000      0.730100000000000
H       4.135800000000000      3.055000000000000      1.583800000000000
H      -4.419500000000000      0.041300000000000     -1.128500000000000
H      -0.171000000000000     -1.002800000000000      1.303400000000000
H       1.290200000000000      1.012300000000000      4.104000000000000
H      -2.093600000000000     -2.304700000000000      0.664800000000000
H      -2.154600000000000     -1.139000000000000     -0.651900000000000
H      -2.552400000000000      1.450900000000000     -0.001000000000000
H      -2.699000000000000      1.835200000000000      1.712600000000000
H      -4.276600000000000     -2.322500000000000     -0.512500000000000
H      -4.446700000000000     -1.930600000000000      1.196200000000000
H      -4.824300000000000      0.643400000000000      1.848500000000000
H      -4.838600000000000      1.830300000000000      0.543900000000000
H      -0.443500000000000      1.734900000000000      2.599400000000000
H      -0.930100000000000      0.339200000000000      3.507700000000000
H       2.043600000000000      3.073300000000000      2.821100000000000
H       1.122700000000000      2.679000000000000      1.379100000000000
H       2.232800000000000      0.425500000000000      1.280800000000000
H       3.258300000000000      0.903100000000000      2.629600000000000
H      -6.520700000000000     -1.245100000000000     -0.907700000000000
H      -6.640300000000000     -0.818200000000000      0.792600000000000
H       1.451200000000000     -1.663400000000000      2.623500000000000
H       1.962600000000000      4.725600000000000      0.233400000000000
H       3.708500000000000      5.017700000000000      0.095400000000000
H       2.909000000000000      5.134900000000000      1.664900000000000
H      -6.895400000000000      1.598800000000000      0.199500000000000
H       5.385500000000000      2.687500000000000     -0.281800000000000
H      -0.586700000000000      0.294900000000000     -0.535400000000000
H       3.097600000000000     -0.553900000000000      4.944300000000000
H       3.685700000000000     -1.066400000000000      3.346900000000000
H       3.063400000000000     -2.260100000000000      4.469200000000000
H       0.433800000000000     -0.997600000000000      5.435900000000000
H       0.795200000000000     -2.633000000000000      4.858800000000000
H      -0.497800000000000     -1.718300000000000      4.105100000000000
H      -8.877400000000000      0.173800000000000      0.472200000000000
H      -9.146100000000001      1.436500000000000     -0.736100000000000
H      -8.845800000000001     -0.231400000000000     -1.253500000000000
H      -6.772800000000000      0.600700000000000     -2.698700000000000
H      -7.320100000000000      2.209200000000000     -2.201000000000000
H      -5.647000000000000      1.737200000000000     -1.931200000000000
