100

O       1.769100000000000     -1.497200000000000     -3.448400000000000
O      -6.008500000000000      1.379600000000000      2.930900000000000
C       7.407600000000000      0.906500000000000     -0.382800000000000
C       5.951800000000000      0.467800000000000     -0.235700000000000
C       8.223599999999999      0.376100000000000      0.783000000000000
C       5.850100000000000     -1.061400000000000     -0.176000000000000
C       5.099300000000000      1.025900000000000     -1.382300000000000
C       7.762600000000000      0.914100000000000      2.133900000000000
C       9.685200000000000      0.811000000000000      0.741400000000000
C       3.545800000000000     -0.969500000000000     -1.224700000000000
C       4.398600000000000     -1.527300000000000     -0.078300000000000
C       3.647700000000000      0.560100000000000     -1.285000000000000
C       7.986100000000000      0.355400000000000     -1.696900000000000
C       7.488400000000000      2.442300000000000     -0.399400000000000
C       8.941500000000000      0.638200000000000      3.061200000000000
C      10.180800000000000      0.583800000000000      2.166100000000000
C       2.090100000000000     -1.407600000000000     -1.076200000000000
C       1.193600000000000     -0.984400000000000     -2.245600000000000
C      -6.007700000000000      1.498100000000000      0.550300000000000
C      -0.250600000000000     -1.487400000000000     -2.119100000000000
C      -4.583200000000000     -1.290700000000000      0.571900000000000
C      -5.287300000000000      0.940600000000000      1.776400000000000
C      -5.221900000000000     -0.594800000000000      1.805300000000000
C      -7.412800000000000      0.895400000000000      0.426800000000000
C      -6.075500000000000      3.029300000000000      0.611700000000000
C      -0.941300000000000     -0.952900000000000     -0.858800000000000
C      -8.240399999999999      3.006300000000000     -0.704100000000000
C      -3.090900000000000     -0.874800000000000      0.471900000000000
C      -8.173100000000000      1.475000000000000     -0.764900000000000
C      -6.835300000000000      3.608900000000000     -0.580200000000000
C      -2.389000000000000     -1.444400000000000     -0.768400000000000
C      -4.791000000000000     -2.839400000000000      0.623300000000000
C      -6.267900000000000     -3.268600000000000      0.458600000000000
C      -8.959700000000000      3.563600000000000     -1.930900000000000
C      -4.133300000000000     -3.517400000000000      1.830000000000000
C      -6.552600000000000     -4.760300000000000      0.415100000000000
H       5.529500000000000      0.871300000000000      0.694500000000000
H       8.235300000000001     -0.720000000000000      0.811000000000000
H       6.281500000000000     -1.536000000000000     -1.062600000000000
H       6.362500000000000     -1.471500000000000      0.698500000000000
H       5.461900000000000      0.710600000000000     -2.364200000000000
H       5.084700000000000      2.120200000000000     -1.374500000000000
H       6.858500000000000      0.419500000000000      2.502100000000000
H       7.578800000000000      1.991500000000000      2.138700000000000
H       9.856100000000000      1.861900000000000      0.508400000000000
H      10.274699999999999      0.221500000000000      0.031200000000000
H       3.948100000000000     -1.378200000000000     -2.161300000000000
H       4.369500000000000     -2.623600000000000     -0.089700000000000
H       3.982300000000000     -1.209700000000000      0.886500000000000
H       3.182600000000000      1.003800000000000     -0.395500000000000
H       3.115200000000000      0.955500000000000     -2.156000000000000
H       7.434700000000000      0.659700000000000     -2.588900000000000
H       8.999499999999999      0.744400000000000     -1.858500000000000
H       8.083200000000000     -0.734000000000000     -1.702300000000000
H       7.075700000000000      2.837800000000000     -1.335900000000000
H       8.496800000000000      2.855400000000000     -0.379200000000000
H       6.909500000000000      2.909300000000000      0.403400000000000
H       8.809900000000001     -0.324100000000000      3.569600000000000
H       9.031599999999999      1.407300000000000      3.835100000000000
H      10.923100000000000      1.334800000000000      2.456000000000000
H      10.659000000000001     -0.398700000000000      2.253600000000000
H       1.699700000000000     -1.010300000000000     -0.133000000000000
H       2.067000000000000     -2.502600000000000     -0.996900000000000
H       1.166000000000000      0.106500000000000     -2.332100000000000
H      -5.437400000000000      1.235700000000000     -0.349700000000000
H      -0.258400000000000     -2.584900000000000     -2.118000000000000
H      -0.815500000000000     -1.187300000000000     -3.010800000000000
H      -5.086900000000000     -0.941300000000000     -0.337000000000000
H      -4.281500000000000      1.368200000000000      1.846500000000000
H      -4.657000000000000     -0.878200000000000      2.704500000000000
H      -6.226400000000000     -0.983500000000000      1.999500000000000
H      -7.995000000000000      1.079200000000000      1.338300000000000
H      -7.369300000000000     -0.189400000000000      0.288600000000000
H      -5.061800000000000      3.447300000000000      0.630000000000000
H      -6.571700000000000      3.361300000000000      1.531900000000000
H      -0.413600000000000     -1.285000000000000      0.041000000000000
H      -0.921200000000000      0.143500000000000     -0.867300000000000
H      -8.818800000000000      3.291900000000000      0.184700000000000
H      -2.545600000000000     -1.164500000000000      1.377100000000000
H      -3.025900000000000      0.217700000000000      0.411600000000000
H      -7.681900000000000      1.158800000000000     -1.694300000000000
H      -9.186900000000000      1.057300000000000     -0.784500000000000
H      -6.264500000000000      3.419100000000000     -1.498300000000000
H      -6.903900000000000      4.697700000000000     -0.469600000000000
H      -2.372800000000000     -2.538200000000000     -0.733800000000000
H      -2.939000000000000     -1.149200000000000     -1.669800000000000
H      -4.293500000000000     -3.255700000000000     -0.261300000000000
H       1.211600000000000     -1.202400000000000     -4.188500000000000
H      -6.871100000000000     -2.853300000000000      1.272800000000000
H      -6.653900000000000     -2.822200000000000     -0.466800000000000
H      -8.428000000000001      3.310200000000000     -2.854400000000000
H      -9.037200000000000      4.654400000000000     -1.873200000000000
H      -9.974700000000000      3.159100000000000     -2.002800000000000
H      -4.143100000000000     -4.606900000000000      1.723000000000000
H      -3.084300000000000     -3.229100000000000      1.938000000000000
H      -4.655100000000000     -3.269700000000000      2.759700000000000
H      -5.532800000000000      1.054200000000000      3.714100000000000
H      -5.947800000000000     -5.251200000000000     -0.353600000000000
H      -6.345600000000000     -5.236300000000000      1.378100000000000
H      -7.607400000000000     -4.936400000000000      0.180600000000000
