100

O       4.991900000000000      0.772200000000000     -0.621300000000000
N       8.090800000000000     -1.031800000000000      0.233000000000000
C      -3.690200000000000      1.226100000000000      0.296900000000000
C      -2.988800000000000      0.849400000000000     -1.023300000000000
C      -1.548500000000000      1.363600000000000     -1.112200000000000
C      -0.721700000000000      0.802700000000000      0.081400000000000
C      -5.087400000000000      0.620600000000000      0.016900000000000
C      -2.915300000000000      0.553700000000000      1.438800000000000
C       0.766300000000000      1.337300000000000      0.056500000000000
C      -3.987400000000000      1.270100000000000     -2.097200000000000
C      -1.438500000000000      0.985500000000000      1.447600000000000
C      -5.361800000000000      0.999400000000000     -1.457700000000000
C      -0.903800000000000      0.948600000000000     -2.443200000000000
C      -6.210900000000000      1.038600000000000      0.954600000000000
C      -3.782900000000000      2.751500000000000      0.548800000000000
C       1.346400000000000      1.270700000000000     -1.363400000000000
C       1.622800000000000      0.440500000000000      0.999800000000000
C       0.585100000000000      1.083300000000000     -2.455500000000000
C       0.844600000000000      2.806600000000000      0.536100000000000
C       2.843700000000000      1.418600000000000     -1.504900000000000
C       3.130300000000000      0.658200000000000      0.877600000000000
C      -7.561300000000000      0.382600000000000      0.599600000000000
C       3.598500000000000      0.484700000000000     -0.562800000000000
C      -5.842800000000000      0.690300000000000      2.401700000000000
C      -7.543800000000000     -1.145800000000000      0.713500000000000
C      -8.925800000000001     -1.736700000000000      0.413800000000000
C       5.767300000000000     -0.318400000000000     -0.146000000000000
C      -8.977499999999999     -3.270800000000000      0.538900000000000
C       7.240300000000000      0.043900000000000     -0.256900000000000
C      -7.989900000000000     -3.904800000000000     -0.443900000000000
C     -10.379799999999999     -3.830300000000000      0.294000000000000
C       9.388500000000001     -0.509000000000000      0.666300000000000
C       8.276600000000000     -2.054900000000000     -0.798400000000000
C       9.261200000000001      0.159800000000000      2.032600000000000
C       8.657400000000001     -3.388300000000000     -0.160200000000000
C      10.599100000000000      0.703700000000000      2.509600000000000
C       8.847300000000001     -4.471100000000000     -1.211200000000000
H      -2.930400000000000     -0.251100000000000     -1.078700000000000
H      -1.551400000000000      2.458700000000000     -1.073600000000000
H      -0.671800000000000     -0.287400000000000     -0.075600000000000
H      -4.976500000000000     -0.471900000000000      0.056500000000000
H      -2.961600000000000     -0.538400000000000      1.340200000000000
H      -3.311800000000000      0.797200000000000      2.424600000000000
H      -3.859600000000000      0.698500000000000     -3.022200000000000
H      -3.884700000000000      2.332000000000000     -2.346900000000000
H      -1.388500000000000      2.029300000000000      1.770800000000000
H      -0.920100000000000      0.401600000000000      2.216600000000000
H      -5.989700000000000      1.893100000000000     -1.547200000000000
H      -5.877000000000000      0.182300000000000     -1.974900000000000
H      -1.319300000000000      1.565200000000000     -3.249400000000000
H      -1.149000000000000     -0.093500000000000     -2.683400000000000
H      -6.371900000000000      2.122200000000000      0.895600000000000
H      -4.400600000000000      3.260300000000000     -0.198200000000000
H      -2.805100000000000      3.240300000000000      0.528200000000000
H      -4.214700000000000      2.972900000000000      1.529400000000000
H       1.417200000000000     -0.617600000000000      0.787200000000000
H       1.336900000000000      0.606000000000000      2.045400000000000
H       1.056300000000000      1.023700000000000     -3.433700000000000
H       0.587700000000000      2.900500000000000      1.596200000000000
H       1.850600000000000      3.226300000000000      0.430200000000000
H       0.171000000000000      3.456300000000000     -0.032000000000000
H       3.175200000000000      1.223900000000000     -2.533200000000000
H       3.131900000000000      2.459200000000000     -1.309100000000000
H       3.627000000000000     -0.051200000000000      1.547200000000000
H       3.409400000000000      1.652000000000000      1.249100000000000
H      -8.334600000000000      0.782900000000000      1.268400000000000
H      -7.863000000000000      0.671200000000000     -0.414300000000000
H       3.416700000000000     -0.548200000000000     -0.891600000000000
H      -5.373300000000000     -0.293800000000000      2.495800000000000
H      -5.196300000000000      1.450700000000000      2.844800000000000
H      -6.738700000000000      0.682400000000000      3.034600000000000
H      -6.818600000000000     -1.546600000000000      0.001500000000000
H      -7.237900000000000     -1.461600000000000      1.716100000000000
H      -9.238700000000000     -1.438800000000000     -0.595300000000000
H      -9.657000000000000     -1.303100000000000      1.108100000000000
H       5.537700000000000     -0.533500000000000      0.902200000000000
H       5.535900000000000     -1.207500000000000     -0.742100000000000
H      -8.678800000000001     -3.551600000000000      1.556800000000000
H       7.488500000000000      0.319400000000000     -1.291600000000000
H       7.372300000000000      0.974000000000000      0.307800000000000
H      -8.151700000000000     -3.543500000000000     -1.465100000000000
H      -6.951900000000000     -3.702800000000000     -0.163900000000000
H      -8.102800000000000     -4.994800000000000     -0.454000000000000
H     -10.726300000000000     -3.600700000000000     -0.719300000000000
H     -10.395500000000000     -4.917800000000000      0.421500000000000
H     -11.095300000000000     -3.399400000000000      1.002000000000000
H       9.798500000000001      0.192900000000000     -0.072400000000000
H      10.130500000000000     -1.308300000000000      0.770000000000000
H       9.028200000000000     -1.745300000000000     -1.537000000000000
H       7.350300000000000     -2.222600000000000     -1.360600000000000
H       8.891800000000000     -0.565700000000000      2.768100000000000
H       8.548800000000000      0.990400000000000      2.020700000000000
H       7.871600000000000     -3.705000000000000      0.536900000000000
H       9.584199999999999     -3.313900000000000      0.417400000000000
H      10.984999999999999      1.458300000000000      1.816800000000000
H      10.489699999999999      1.170400000000000      3.493700000000000
H      11.341100000000001     -0.096600000000000      2.595400000000000
H       9.649600000000000     -4.205600000000000     -1.907100000000000
H       9.111499999999999     -5.420200000000000     -0.734400000000000
H       7.929200000000000     -4.625600000000000     -1.787000000000000
