100

O      -4.571200000000000     -1.453500000000000      0.703200000000000
O       4.941400000000000      0.350000000000000     -0.804500000000000
C       0.096000000000000      1.836800000000000      0.791700000000000
C      -0.909900000000000      0.688000000000000      0.746600000000000
C       0.912900000000000      1.952800000000000     -0.560100000000000
C      -1.760900000000000      0.662500000000000      2.023900000000000
C      -1.797200000000000      0.793400000000000     -0.501600000000000
C      -3.688400000000000     -0.337500000000000      0.733700000000000
C      -2.810400000000000     -0.444100000000000      1.977900000000000
C      -2.846700000000000     -0.313400000000000     -0.540500000000000
C       0.986000000000000      1.658500000000000      2.037200000000000
C      -0.723800000000000      3.136000000000000      1.000500000000000
C       2.132500000000000      0.990000000000000     -0.563800000000000
C       1.283300000000000      3.387500000000000     -1.030100000000000
C      -5.820200000000000     -1.117500000000000      0.086000000000000
C       2.892800000000000      0.949200000000000     -1.892700000000000
C       2.229000000000000      4.184700000000000     -0.131900000000000
C      -6.356400000000000     -2.384000000000000     -0.582800000000000
C      -6.727900000000000     -0.604800000000000      1.199000000000000
C      -8.773700000000000     -1.497200000000000     -1.042800000000000
C      -8.534000000000001     -0.026400000000000     -0.629000000000000
C      -7.494000000000000     -2.165000000000000     -1.571500000000000
C      -7.957100000000000      0.196700000000000      0.776800000000000
C       4.052200000000000     -0.038200000000000     -1.842400000000000
C       6.067300000000000     -0.531800000000000     -0.718700000000000
C       2.409500000000000      5.606300000000000     -0.648400000000000
C       7.996700000000000     -2.856400000000000      0.202000000000000
C       8.954100000000000     -1.661400000000000      0.433600000000000
C       5.589300000000000     -1.840900000000000     -0.090700000000000
C       7.175000000000000      0.203400000000000      0.028600000000000
C      -9.478600000000000     -2.348600000000000      0.015600000000000
C      -9.834300000000001      0.785800000000000     -0.757400000000000
C       6.575000000000000     -2.652300000000000      0.745000000000000
C       8.567700000000000     -0.352000000000000     -0.268500000000000
C       8.006900000000000     -3.337400000000000     -1.252100000000000
C       9.217100000000000     -1.419100000000000      1.928200000000000
H      -0.366900000000000     -0.265500000000000      0.686100000000000
H       0.305500000000000      1.618100000000000     -1.397200000000000
H      -2.328600000000000      1.581800000000000      2.181300000000000
H      -1.150800000000000      0.490400000000000      2.915500000000000
H      -1.245600000000000      0.662000000000000     -1.433000000000000
H      -2.330200000000000      1.745400000000000     -0.563700000000000
H      -4.250400000000000      0.603800000000000      0.808200000000000
H      -2.318500000000000     -1.425500000000000      2.000900000000000
H      -3.437600000000000     -0.407900000000000      2.877200000000000
H      -3.487900000000000     -0.184200000000000     -1.420400000000000
H      -2.357900000000000     -1.287500000000000     -0.675300000000000
H       0.457700000000000      1.877100000000000      2.971400000000000
H       1.382000000000000      0.639400000000000      2.110400000000000
H       1.842000000000000      2.339200000000000      2.021400000000000
H      -1.288500000000000      3.162100000000000      1.935200000000000
H      -0.085000000000000      4.014100000000000      1.106200000000000
H      -1.409500000000000      3.364400000000000      0.181300000000000
H       2.832700000000000      1.282300000000000      0.225900000000000
H       1.789300000000000     -0.024800000000000     -0.328400000000000
H       1.713200000000000      3.343100000000000     -2.038200000000000
H       0.359800000000000      3.962100000000000     -1.175900000000000
H      -5.665000000000000     -0.348600000000000     -0.680500000000000
H       2.214300000000000      0.679700000000000     -2.709500000000000
H       3.311900000000000      1.936700000000000     -2.111400000000000
H       1.894800000000000      4.239200000000000      0.904000000000000
H       3.209500000000000      3.694900000000000     -0.114100000000000
H      -6.650100000000000     -3.117100000000000      0.179000000000000
H      -5.530400000000000     -2.864900000000000     -1.124700000000000
H      -6.160200000000000      0.014200000000000      1.906300000000000
H      -7.048400000000000     -1.456500000000000      1.813600000000000
H      -9.451700000000001     -1.476000000000000     -1.908800000000000
H      -7.835700000000000      0.417500000000000     -1.351700000000000
H      -7.112400000000000     -1.575300000000000     -2.415700000000000
H      -7.762800000000000     -3.141600000000000     -1.995800000000000
H      -8.738700000000000      0.041800000000000      1.532500000000000
H      -7.694700000000000      1.261300000000000      0.854900000000000
H       3.658100000000000     -1.044800000000000     -1.669400000000000
H       4.575300000000000     -0.025500000000000     -2.805600000000000
H       6.422500000000000     -0.720800000000000     -1.739400000000000
H       2.804000000000000      5.606300000000000     -1.669500000000000
H       3.113400000000000      6.153200000000000     -0.013200000000000
H       1.458100000000000      6.147700000000000     -0.645500000000000
H       8.416000000000000     -3.689900000000000      0.785400000000000
H       9.927600000000000     -1.955100000000000      0.014100000000000
H       5.218300000000000     -2.489000000000000     -0.896200000000000
H       4.708400000000000     -1.650100000000000      0.538100000000000
H       7.165700000000000      1.253600000000000     -0.294500000000000
H       6.967100000000000      0.236500000000000      1.103700000000000
H       6.126500000000000     -3.645500000000000      0.889300000000000
H       6.617300000000000     -2.222600000000000      1.751900000000000
H       8.686800000000000     -0.473500000000000     -1.352500000000000
H       9.301299999999999      0.415100000000000      0.014400000000000
H      -8.879200000000001     -2.483300000000000      0.918400000000000
H     -10.432399999999999     -1.899700000000000      0.309800000000000
H      -9.697200000000000     -3.345500000000000     -0.382900000000000
H      -9.650900000000000      1.845200000000000     -0.547300000000000
H     -10.238500000000000      0.718400000000000     -1.773000000000000
H     -10.602300000000000      0.434100000000000     -0.061200000000000
H       7.662100000000000     -2.575700000000000     -1.954200000000000
H       7.367100000000000     -4.218600000000000     -1.370400000000000
H       9.020600000000000     -3.625000000000000     -1.551800000000000
H       8.337400000000001     -1.041400000000000      2.455700000000000
H      10.019100000000000     -0.684300000000000      2.060500000000000
H       9.536799999999999     -2.343400000000000      2.421000000000000
