100

N       4.840600000000000      2.068200000000000     -0.634700000000000
N      -2.573100000000000      1.458400000000000     -1.558500000000000
C       1.282000000000000     -0.446200000000000      0.022600000000000
C      -1.694900000000000     -0.334800000000000      0.330600000000000
C      -0.984500000000000     -1.752100000000000      0.243100000000000
C       0.405800000000000     -1.641400000000000     -0.547200000000000
C      -0.818700000000000      0.860200000000000      0.900900000000000
C       0.571500000000000      0.971000000000000      0.110500000000000
C       2.689200000000000     -0.371800000000000     -0.627000000000000
C      -3.102400000000000     -0.408800000000000      0.979300000000000
C       3.852300000000000     -0.019700000000000      0.467600000000000
C      -4.181600000000000      0.553600000000000      0.214700000000000
C      -0.738500000000000     -2.261100000000000      1.701400000000000
C      -1.902800000000000     -2.828600000000000     -0.396300000000000
C      -0.557600000000000      0.587800000000000      2.418700000000000
C      -1.582600000000000      2.211600000000000      0.872700000000000
C       1.226300000000000     -2.963000000000000     -0.384800000000000
C       0.167000000000000     -1.514400000000000     -2.076100000000000
C       1.489600000000000      2.047500000000000      0.750300000000000
C       0.325600000000000      1.480400000000000     -1.347700000000000
C       2.890400000000000     -1.753200000000000     -1.306100000000000
C       2.572900000000000      0.687800000000000     -1.748300000000000
C      -2.895700000000000     -0.025600000000000      2.463900000000000
C      -3.486900000000000     -1.912100000000000      0.932000000000000
C       5.174800000000000      0.738000000000000     -0.091200000000000
C      -3.904700000000000      0.856500000000000     -1.355900000000000
C       4.289300000000000     -1.335400000000000      1.180100000000000
C       3.216300000000000      0.856700000000000      1.597400000000000
C      -4.279200000000000      1.908500000000000      0.979200000000000
C      -5.601300000000000     -0.089800000000000      0.355100000000000
C       5.910900000000000     -0.015000000000000     -1.217400000000000
C       6.240600000000000      0.990400000000000      1.010500000000000
C      -4.916800000000000      1.821100000000000     -2.005600000000000
C      -3.923900000000000     -0.425100000000000     -2.233700000000000
H       1.443400000000000     -0.776700000000000      1.046000000000000
H      -1.786900000000000     -0.192400000000000     -0.719800000000000
H      -0.567200000000000     -3.347400000000000      1.676500000000000
H      -1.494000000000000     -2.176200000000000      2.465200000000000
H       0.197200000000000     -1.892900000000000      2.126800000000000
H      -2.281900000000000     -3.652400000000000      0.222200000000000
H      -2.569900000000000     -2.494200000000000     -1.183800000000000
H      -1.261000000000000     -3.461800000000000     -1.027500000000000
H      -0.848500000000000      2.954100000000000      1.223200000000000
H      -1.861800000000000      2.723100000000000     -0.028000000000000
H      -2.260100000000000      2.387700000000000      1.694100000000000
H      -0.835600000000000      1.428000000000000      3.070600000000000
H      -0.769600000000000     -0.340200000000000      2.913900000000000
H       0.514100000000000      0.577700000000000      2.596400000000000
H       0.528300000000000     -3.750000000000000     -0.064300000000000
H       1.884600000000000     -2.980900000000000      0.490900000000000
H       1.572600000000000     -3.498800000000000     -1.278400000000000
H       0.042000000000000     -2.509800000000000     -2.525700000000000
H       0.889800000000000     -1.026200000000000     -2.711100000000000
H      -0.786400000000000     -1.034400000000000     -2.300100000000000
H       0.981000000000000      3.002100000000000      0.518800000000000
H       2.387600000000000      2.332500000000000      0.215900000000000
H       1.457400000000000      2.171400000000000      1.837400000000000
H      -0.455000000000000      2.234700000000000     -1.286600000000000
H      -0.061600000000000      0.793200000000000     -2.082200000000000
H       1.016600000000000      2.202700000000000     -1.787700000000000
H       2.382600000000000     -2.023000000000000     -2.229000000000000
H       3.295700000000000     -2.574000000000000     -0.709200000000000
H       3.850200000000000     -1.589700000000000     -1.829400000000000
H       2.709700000000000      1.728900000000000     -1.496400000000000
H       1.880800000000000      0.510300000000000     -2.565000000000000
H       3.470700000000000      0.548500000000000     -2.365400000000000
H      -2.689100000000000      0.973800000000000      2.815500000000000
H      -2.512600000000000     -0.792500000000000      3.135700000000000
H      -3.932100000000000     -0.082200000000000      2.854200000000000
H      -4.418200000000000     -1.921600000000000      1.533200000000000
H      -3.034100000000000     -2.647900000000000      1.590400000000000
H      -3.965400000000000     -2.259400000000000      0.012700000000000
H       3.429800000000000     -1.882700000000000      1.577200000000000
H       4.858300000000000     -2.002400000000000      0.528300000000000
H       4.933700000000000     -1.144700000000000      2.045300000000000
H       2.360000000000000      0.458200000000000      2.124100000000000
H       3.476900000000000      1.921300000000000      1.603700000000000
H       3.890000000000000      0.660400000000000      2.458100000000000
H      -4.222900000000000      1.905100000000000      2.065100000000000
H      -5.319800000000000      2.257400000000000      0.858200000000000
H      -3.781600000000000      2.759400000000000      0.519100000000000
H      -6.382400000000000      0.563300000000000     -0.048900000000000
H      -5.858300000000000     -0.239900000000000      1.410500000000000
H      -5.715400000000000     -1.046400000000000     -0.156500000000000
H       6.211400000000000     -1.018100000000000     -0.899300000000000
H       6.835300000000000      0.507700000000000     -1.498200000000000
H       5.342600000000000     -0.117200000000000     -2.141200000000000
H       5.849400000000000      1.584400000000000      1.842300000000000
H       6.635900000000000      0.053200000000000      1.414500000000000
H       7.105900000000000      1.538200000000000      0.614300000000000
H      -5.921400000000000      1.387200000000000     -2.040300000000000
H      -4.643800000000000      2.055800000000000     -3.042800000000000
H      -4.983400000000000      2.777200000000000     -1.476800000000000
H      -4.061900000000000     -0.163600000000000     -3.292200000000000
H      -4.740300000000000     -1.105000000000000     -1.986700000000000
H      -2.990800000000000     -0.973800000000000     -2.221300000000000
H       4.815200000000000      2.049300000000000     -1.653100000000000
H       5.569700000000000      2.744900000000000     -0.410800000000000
H      -2.688000000000000      2.466700000000000     -1.677300000000000
H      -2.205500000000000      1.166000000000000     -2.465800000000000
