100

O      -4.431100000000000      0.977600000000000      0.748000000000000
N     -15.075500000000000     -2.368200000000000     -0.840900000000000
C       4.203700000000000      0.943500000000000     -0.614100000000000
C       3.540700000000000      0.503600000000000      0.706400000000000
C       2.144500000000000      1.099600000000000      0.911300000000000
C       1.226500000000000      0.695000000000000     -0.279000000000000
C       5.567800000000000      0.228300000000000     -0.457000000000000
C       3.332200000000000      0.420300000000000     -1.764400000000000
C      -0.218800000000000      1.319900000000000     -0.133400000000000
C       4.614700000000000      0.768700000000000      1.756900000000000
C       1.889700000000000      0.945200000000000     -1.661500000000000
C       5.935800000000000      0.463400000000000      1.026900000000000
C       1.535800000000000      0.616100000000000      2.236100000000000
C       6.672200000000000      0.650800000000000     -1.415100000000000
C       4.388300000000000      2.475600000000000     -0.747100000000000
C      -0.734600000000000      1.172700000000000      1.305000000000000
C      -1.177800000000000      0.561400000000000     -1.099000000000000
C       0.062000000000000      0.845700000000000      2.337200000000000
C      -0.219300000000000      2.826100000000000     -0.489400000000000
C      -2.209900000000000      1.405200000000000      1.535700000000000
C      -2.660000000000000      0.863000000000000     -0.880900000000000
C       8.082000000000001      0.280400000000000     -0.905600000000000
C      -3.069800000000000      0.601900000000000      0.565000000000000
C       6.441900000000000      0.012200000000000     -2.790400000000000
C       8.254600000000000     -1.217200000000000     -0.633100000000000
C       9.632999999999999     -1.581200000000000     -0.065400000000000
C      -5.315100000000000     -0.010100000000000      0.238300000000000
C       9.896500000000000     -3.081100000000000      0.167200000000000
C      -6.759600000000000      0.404900000000000      0.490200000000000
C      11.311800000000000     -3.353900000000000      0.677100000000000
C       8.872299999999999     -3.636100000000000      1.161500000000000
C      -7.759900000000000     -0.632800000000000     -0.030500000000000
C      -9.201700000000001     -0.176300000000000      0.205600000000000
C     -10.247500000000000     -1.167600000000000     -0.313000000000000
C     -11.689399999999999     -0.722700000000000     -0.054300000000000
C     -12.688800000000001     -1.769700000000000     -0.558200000000000
C     -14.147100000000000     -1.364100000000000     -0.336400000000000
H       3.410400000000000     -0.591700000000000      0.676100000000000
H       2.219300000000000      2.191600000000000      0.962000000000000
H       1.109800000000000     -0.398900000000000     -0.207900000000000
H       5.397000000000000     -0.853400000000000     -0.567000000000000
H       3.311400000000000     -0.676800000000000     -1.761100000000000
H       3.723600000000000      0.726400000000000     -2.737200000000000
H       4.490100000000000      0.131500000000000      2.638500000000000
H       4.595400000000000      1.810800000000000      2.095600000000000
H       1.897700000000000      2.013900000000000     -1.894700000000000
H       1.297500000000000      0.464000000000000     -2.448100000000000
H       6.602300000000000      1.321100000000000      1.167100000000000
H       6.413900000000000     -0.410400000000000      1.478500000000000
H       2.030100000000000      1.134000000000000      3.066900000000000
H       1.719500000000000     -0.456300000000000      2.377600000000000
H       6.693300000000000      1.737300000000000     -1.547400000000000
H       5.099000000000000      2.878100000000000     -0.018300000000000
H       3.453400000000000      3.025400000000000     -0.609200000000000
H       4.753300000000000      2.741100000000000     -1.745600000000000
H      -1.034500000000000     -0.521600000000000     -0.982900000000000
H      -0.931200000000000      0.794700000000000     -2.141700000000000
H      -0.365900000000000      0.735300000000000      3.330800000000000
H      -1.188700000000000      3.298800000000000     -0.298900000000000
H      -0.005600000000000      2.991100000000000     -1.550400000000000
H       0.522200000000000      3.381900000000000      0.093500000000000
H      -2.504300000000000      1.149500000000000      2.562000000000000
H      -2.434300000000000      2.474900000000000      1.437600000000000
H      -3.238900000000000      0.242900000000000     -1.573300000000000
H      -2.889700000000000      1.899400000000000     -1.157400000000000
H       8.824000000000000      0.589400000000000     -1.654000000000000
H       8.333000000000000      0.851100000000000     -0.005100000000000
H      -2.943300000000000     -0.464300000000000      0.800500000000000
H       6.147500000000000     -1.040000000000000     -2.722500000000000
H       5.675100000000000      0.549700000000000     -3.351200000000000
H       7.349100000000000      0.064700000000000     -3.403300000000000
H       8.117500000000000     -1.775200000000000     -1.566900000000000
H       7.488100000000000     -1.575300000000000      0.054000000000000
H       9.777699999999999     -1.039500000000000      0.878800000000000
H      10.399200000000000     -1.201400000000000     -0.754000000000000
H      -5.172200000000000     -0.140200000000000     -0.838600000000000
H      -5.122300000000000     -0.968500000000000      0.735400000000000
H       9.773300000000001     -3.610200000000000     -0.786000000000000
H      -6.941700000000000      1.377000000000000      0.015000000000000
H      -6.907800000000000      0.565100000000000      1.565500000000000
H      12.056200000000000     -2.979100000000000     -0.033100000000000
H      11.481600000000000     -4.428100000000000      0.804900000000000
H      11.487200000000000     -2.864200000000000      1.641000000000000
H       8.867800000000001     -3.062300000000000      2.094500000000000
H       7.860600000000000     -3.627900000000000      0.745300000000000
H       9.102300000000000     -4.678200000000000      1.410400000000000
H      -7.590600000000000     -1.592900000000000      0.471300000000000
H      -7.598600000000000     -0.793600000000000     -1.103200000000000
H      -9.359200000000000      0.794200000000000     -0.281400000000000
H      -9.358499999999999     -0.020100000000000      1.280100000000000
H     -10.100700000000000     -1.312400000000000     -1.390500000000000
H     -10.079700000000001     -2.141900000000000      0.162900000000000
H     -11.873699999999999      0.235100000000000     -0.555100000000000
H     -11.838500000000000     -0.561700000000000      1.020000000000000
H     -12.496100000000000     -2.724100000000000     -0.051400000000000
H     -12.520200000000001     -1.940400000000000     -1.629400000000000
H     -14.330000000000000     -1.210600000000000      0.733000000000000
H     -14.346700000000000     -0.413500000000000     -0.842900000000000
H     -14.918200000000001     -3.252800000000000     -0.359800000000000
H     -16.030100000000001     -2.087900000000000     -0.620000000000000
