100

O       2.541100000000000      4.033100000000000     -0.863100000000000
O       2.576400000000000      1.934100000000000     -1.820800000000000
C       1.318200000000000     -2.167700000000000      1.073800000000000
C       1.443300000000000     -3.612700000000000      0.584000000000000
C       0.289500000000000     -1.347200000000000      0.288800000000000
C       2.365100000000000     -4.473000000000000      1.456500000000000
C       0.670700000000000     -1.146900000000000     -1.180700000000000
C       3.810700000000000     -3.978100000000000      1.582500000000000
C      -0.228500000000000     -0.143300000000000     -1.911300000000000
C       4.539800000000000     -3.887500000000000      0.239700000000000
C      -1.724500000000000     -0.469600000000000     -1.905100000000000
C       6.017700000000000     -3.502600000000000      0.372700000000000
C      -2.058200000000000     -1.802600000000000     -2.579900000000000
C       6.297100000000000     -2.157900000000000      1.052900000000000
C      -3.564400000000000     -2.067800000000000     -2.677000000000000
C      -4.220200000000000     -2.294600000000000     -1.312400000000000
C       5.613200000000000     -0.972300000000000      0.367700000000000
C      -5.708000000000000     -2.623400000000000     -1.454100000000000
C       5.989000000000000      0.351100000000000      1.038200000000000
C       0.586900000000000      3.326300000000000      0.463900000000000
C      -0.955000000000000      3.380500000000000      0.478100000000000
C      -6.389200000000000     -2.954700000000000     -0.121200000000000
C       5.160500000000000      1.538000000000000      0.537200000000000
C      -1.600600000000000      2.556900000000000      1.598300000000000
C      -3.128000000000000      2.695600000000000      1.641500000000000
C      -6.270700000000000     -1.889500000000000      0.974400000000000
C       5.382600000000000      1.854000000000000     -0.945400000000000
C      -3.838900000000000      2.007300000000000      0.472100000000000
C       1.102900000000000      4.039600000000000     -0.799800000000000
C      -6.875800000000000     -0.539000000000000      0.581700000000000
C       4.642400000000000      3.118200000000000     -1.379600000000000
C       1.203200000000000      3.947600000000000      1.722000000000000
C      -5.354900000000000      2.233200000000000      0.469000000000000
C      -6.718700000000000      0.459600000000000      1.693000000000000
C      -6.057800000000000      1.626900000000000      1.649700000000000
C       3.142900000000000      2.928200000000000     -1.387400000000000
H       2.287200000000000     -1.661400000000000      1.019500000000000
H       1.021700000000000     -2.172200000000000      2.129800000000000
H       1.797500000000000     -3.635900000000000     -0.451700000000000
H       0.448700000000000     -4.075900000000000      0.579400000000000
H       0.196100000000000     -0.367000000000000      0.771400000000000
H      -0.688800000000000     -1.835100000000000      0.364100000000000
H       2.372500000000000     -5.492900000000000      1.052300000000000
H       1.934900000000000     -4.544300000000000      2.463300000000000
H       0.651300000000000     -2.104800000000000     -1.710800000000000
H       1.704100000000000     -0.783100000000000     -1.238400000000000
H       4.353600000000000     -4.671800000000000      2.236600000000000
H       3.818500000000000     -3.007900000000000      2.089700000000000
H       0.116100000000000     -0.057100000000000     -2.949200000000000
H      -0.092500000000000      0.846200000000000     -1.459700000000000
H       4.038800000000000     -3.172700000000000     -0.421300000000000
H       4.484400000000000     -4.861300000000000     -0.262700000000000
H      -2.252700000000000      0.338000000000000     -2.427200000000000
H      -2.090400000000000     -0.459800000000000     -0.874100000000000
H       6.461300000000000     -3.489300000000000     -0.630700000000000
H       6.541900000000000     -4.288800000000000      0.930100000000000
H      -1.584700000000000     -2.632000000000000     -2.042700000000000
H      -1.641900000000000     -1.801700000000000     -3.594800000000000
H       7.382300000000000     -1.994900000000000      1.054100000000000
H       5.993600000000000     -2.204000000000000      2.105200000000000
H      -3.716900000000000     -2.958100000000000     -3.299500000000000
H      -4.054400000000000     -1.232900000000000     -3.192300000000000
H      -3.710800000000000     -3.113600000000000     -0.790800000000000
H      -4.104500000000000     -1.394800000000000     -0.701100000000000
H       4.526200000000000     -1.093000000000000      0.407800000000000
H       5.901600000000000     -0.952300000000000     -0.689200000000000
H      -5.825600000000000     -3.487800000000000     -2.119600000000000
H      -6.226500000000000     -1.789900000000000     -1.941900000000000
H       7.056100000000000      0.553000000000000      0.886200000000000
H       5.834700000000000      0.263900000000000      2.121000000000000
H       0.908700000000000      2.278100000000000      0.427400000000000
H      -1.320600000000000      3.014500000000000     -0.488300000000000
H      -1.281200000000000      4.425000000000000      0.562100000000000
H      -5.966900000000000     -3.891000000000000      0.264900000000000
H      -7.451000000000000     -3.152700000000000     -0.313500000000000
H       5.427600000000000      2.417700000000000      1.135800000000000
H       4.097900000000000      1.341400000000000      0.724600000000000
H      -1.218000000000000      2.891900000000000      2.568200000000000
H      -1.325200000000000      1.501400000000000      1.493000000000000
H      -3.397900000000000      3.758300000000000      1.669900000000000
H      -3.477500000000000      2.255700000000000      2.583300000000000
H      -5.218900000000000     -1.763600000000000      1.258900000000000
H      -6.781600000000000     -2.266600000000000      1.870200000000000
H       6.454700000000000      1.997900000000000     -1.125300000000000
H       5.062400000000000      1.009000000000000     -1.564800000000000
H      -3.624900000000000      0.932000000000000      0.496100000000000
H      -3.446500000000000      2.387500000000000     -0.477300000000000
H       0.686800000000000      3.589900000000000     -1.709700000000000
H       0.794000000000000      5.091100000000000     -0.795500000000000
H      -7.944900000000000     -0.661800000000000      0.371900000000000
H      -6.412600000000000     -0.178300000000000     -0.339300000000000
H       4.939600000000000      3.400100000000000     -2.395800000000000
H       4.910900000000000      3.948300000000000     -0.715900000000000
H       0.882700000000000      4.987300000000000      1.846500000000000
H       2.297200000000000      3.934300000000000      1.676300000000000
H       0.920600000000000      3.393100000000000      2.621400000000000
H      -5.767000000000000      1.849200000000000     -0.470000000000000
H      -5.566100000000000      3.309900000000000      0.458600000000000
H      -7.189000000000000      0.190300000000000      2.637400000000000
H      -6.035900000000000      2.219100000000000      2.563000000000000
