100

O       0.692000000000000      1.907100000000000      0.218400000000000
O      -0.688400000000000      1.904700000000000     -0.248500000000000
C       3.006300000000000      1.628200000000000     -0.624900000000000
C      -3.003900000000000      1.638800000000000      0.603300000000000
C       2.879900000000000     -1.722200000000000      1.718900000000000
C      -2.882700000000000     -1.743000000000000     -1.695400000000000
C       3.853800000000000      1.866500000000000     -1.981000000000000
C      -3.849900000000000      1.896200000000000      1.956800000000000
C       3.406000000000000      0.245800000000000      0.019900000000000
C      -3.405500000000000      0.248100000000000     -0.022500000000000
C       2.432300000000000     -0.371500000000000      1.047100000000000
C      -2.433300000000000     -0.383700000000000     -1.042200000000000
C       1.756500000000000     -2.241300000000000      2.749500000000000
C      -1.760800000000000     -2.276900000000000     -2.719900000000000
C       1.478800000000000      1.661000000000000     -0.937900000000000
C      -1.476100000000000      1.674400000000000      0.914500000000000
C       3.320000000000000      2.742300000000000      0.410300000000000
C      -3.317600000000000      2.739200000000000     -0.446500000000000
C       4.224900000000000     -1.477300000000000      2.451600000000000
C       3.151900000000000     -2.779200000000000      0.620500000000000
C      -4.228300000000000     -1.506700000000000     -2.429900000000000
C      -3.154700000000000     -2.784900000000000     -0.582400000000000
C       5.382800000000000      1.853200000000000     -1.725600000000000
C       3.523700000000000      3.230600000000000     -2.637300000000000
C       3.577900000000000      0.776100000000000     -3.046200000000000
C      -5.379100000000000      1.880800000000000      1.703100000000000
C      -3.517900000000000      3.268700000000000      2.594400000000000
C      -3.574000000000000      0.819900000000000      3.036400000000000
C       1.461400000000000     -1.199700000000000      3.857700000000000
C       0.405400000000000     -2.536300000000000      2.050400000000000
C       2.181800000000000     -3.549800000000000      3.459900000000000
C      -2.187900000000000     -3.594500000000000     -3.412200000000000
C      -0.409300000000000     -2.563700000000000     -2.018100000000000
C      -1.465900000000000     -1.250600000000000     -3.842300000000000
H       4.392400000000000      0.361200000000000      0.479500000000000
H       3.518100000000000     -0.492600000000000     -0.774800000000000
H      -4.392300000000000      0.358200000000000     -0.482700000000000
H      -3.517400000000000     -0.479300000000000      0.782200000000000
H       2.258800000000000      0.375000000000000      1.827300000000000
H       1.478600000000000     -0.546000000000000      0.541700000000000
H      -2.260000000000000      0.352100000000000     -1.832500000000000
H      -1.479300000000000     -0.552200000000000     -0.535400000000000
H       1.159300000000000      0.717900000000000     -1.396900000000000
H       1.238200000000000      2.461700000000000     -1.639800000000000
H      -1.156100000000000      0.737300000000000      1.385000000000000
H      -1.233400000000000      2.484800000000000      1.604400000000000
H       2.981700000000000      3.724600000000000      0.067000000000000
H       2.820000000000000      2.555700000000000      1.367100000000000
H       4.387800000000000      2.807100000000000      0.636300000000000
H      -2.978100000000000      3.725600000000000     -0.116800000000000
H      -2.818600000000000      2.539100000000000     -1.401200000000000
H      -4.385600000000000      2.801800000000000     -0.672400000000000
H       4.157000000000000     -0.646800000000000      3.160700000000000
H       4.567700000000000     -2.363100000000000      2.992800000000000
H       5.030300000000000     -1.236500000000000      1.749600000000000
H       2.283200000000000     -2.918300000000000     -0.030100000000000
H       3.426700000000000     -3.751100000000000      1.039000000000000
H       3.990100000000000     -2.486800000000000     -0.021400000000000
H      -4.160400000000000     -0.685900000000000     -3.150100000000000
H      -4.572300000000000     -2.399400000000000     -2.959000000000000
H      -5.032800000000000     -1.255900000000000     -1.730400000000000
H      -2.285400000000000     -2.915900000000000      0.069100000000000
H      -3.430600000000000     -3.762000000000000     -0.987600000000000
H      -3.992200000000000     -2.483000000000000      0.056000000000000
H       5.715500000000000      0.910300000000000     -1.281300000000000
H       5.697900000000000      2.671800000000000     -1.072200000000000
H       5.936600000000000      1.972000000000000     -2.665100000000000
H       2.498700000000000      3.284100000000000     -3.012700000000000
H       3.689600000000000      4.069400000000000     -1.955800000000000
H       4.171600000000000      3.406000000000000     -3.505700000000000
H       2.510300000000000      0.684100000000000     -3.267200000000000
H       3.954100000000000     -0.207700000000000     -2.753000000000000
H       4.075700000000000      1.023300000000000     -3.992300000000000
H      -5.713000000000000      0.932400000000000      1.271700000000000
H      -5.694000000000000      2.691000000000000      1.039000000000000
H      -5.931900000000000      2.012700000000000      2.641400000000000
H      -2.492300000000000      3.326400000000000      2.967800000000000
H      -3.684100000000000      4.098400000000000      1.902000000000000
H      -4.164600000000000      3.456300000000000      3.461200000000000
H      -2.506100000000000      0.729800000000000      3.257400000000000
H      -3.951500000000000     -0.167400000000000      2.756900000000000
H      -4.070500000000000      1.080400000000000      3.979500000000000
H       0.732000000000000     -1.592900000000000      4.576800000000000
H       2.358400000000000     -0.942900000000000      4.428500000000000
H       1.031400000000000     -0.277900000000000      3.454700000000000
H       0.505800000000000     -3.305300000000000      1.278700000000000
H      -0.335600000000000     -2.905500000000000      2.770200000000000
H      -0.026500000000000     -1.643200000000000      1.590300000000000
H       2.350000000000000     -4.370400000000000      2.757400000000000
H       1.396000000000000     -3.889200000000000      4.146800000000000
H       3.081900000000000     -3.420300000000000      4.067000000000000
H      -2.356200000000000     -4.405400000000000     -2.698500000000000
H      -1.403100000000000     -3.943800000000000     -4.095200000000000
H      -3.088500000000000     -3.472400000000000     -4.020000000000000
H      -0.509700000000000     -3.322200000000000     -1.236000000000000
H       0.330700000000000     -2.943200000000000     -2.733500000000000
H       0.023800000000000     -1.664800000000000     -1.570400000000000
H      -0.737300000000000     -1.654100000000000     -4.556600000000000
H      -2.363100000000000     -1.000900000000000     -4.415700000000000
H      -1.034800000000000     -0.323900000000000     -3.452200000000000
