100

O       6.452000000000000      1.066500000000000      0.981500000000000
O       5.992400000000000      2.425300000000000     -0.831800000000000
C      -3.670400000000000     -3.904500000000000      0.396700000000000
C      -2.751000000000000     -4.332400000000000     -0.752000000000000
C      -2.926200000000000     -3.593900000000000      1.700200000000000
C      -1.741000000000000     -3.255700000000000     -1.158200000000000
C      -3.867300000000000     -3.224700000000000      2.854700000000000
C      -1.019200000000000     -3.632600000000000     -2.455900000000000
C      -4.072100000000000     -1.717900000000000      3.059200000000000
C       0.059000000000000     -2.619500000000000     -2.852200000000000
C      -4.729400000000000     -1.013400000000000      1.875000000000000
C       1.324200000000000     -2.742800000000000     -1.999700000000000
C      -5.032400000000000      0.455200000000000      2.180200000000000
C       2.355400000000000     -1.674000000000000     -2.365300000000000
C       3.617500000000000      0.927900000000000      1.782000000000000
C      -5.662200000000000      1.136700000000000      0.963300000000000
C       4.763400000000000      1.353300000000000      2.724400000000000
C       2.330100000000000      0.547100000000000      2.520800000000000
C       1.208600000000000      0.071500000000000      1.589100000000000
C       3.656600000000000     -1.881200000000000     -1.588400000000000
C      -5.845500000000000      2.638400000000000      1.184900000000000
C       0.755400000000000      1.135000000000000      0.587400000000000
C       4.637900000000000     -0.731800000000000     -1.820100000000000
C      -6.457400000000000      3.363500000000000     -0.020600000000000
C      -0.500700000000000      0.695500000000000     -0.167500000000000
C       5.907100000000000      2.006400000000000      1.926300000000000
C       5.963000000000000     -0.983300000000000     -1.093300000000000
C      -5.720400000000000      3.185300000000000     -1.354200000000000
C      -0.922000000000000      1.751600000000000     -1.191500000000000
C       5.293000000000000      0.167600000000000      3.537600000000000
C       6.903800000000000      0.216800000000000     -1.164200000000000
C      -4.259400000000000      3.636500000000000     -1.311000000000000
C      -2.210800000000000      1.351500000000000     -1.908800000000000
C       6.397700000000000      1.378800000000000     -0.343700000000000
C      -3.566400000000000      3.380000000000000     -2.619200000000000
C      -2.663300000000000      2.417300000000000     -2.865800000000000
H      -4.385000000000000     -4.716700000000000      0.580400000000000
H      -4.261200000000000     -3.043600000000000      0.071100000000000
H      -3.380800000000000     -4.584000000000000     -1.614400000000000
H      -2.217000000000000     -5.249100000000000     -0.473500000000000
H      -2.188400000000000     -2.797700000000000      1.555500000000000
H      -2.366400000000000     -4.492700000000000      1.988700000000000
H      -1.013000000000000     -3.121300000000000     -0.352500000000000
H      -2.254800000000000     -2.296500000000000     -1.295700000000000
H      -3.429600000000000     -3.615500000000000      3.782500000000000
H      -4.837100000000000     -3.723100000000000      2.739800000000000
H      -1.758900000000000     -3.684600000000000     -3.264500000000000
H      -0.576100000000000     -4.631700000000000     -2.367000000000000
H      -3.105200000000000     -1.246300000000000      3.274400000000000
H      -4.693600000000000     -1.577500000000000      3.952300000000000
H      -0.344800000000000     -1.602200000000000     -2.792800000000000
H       0.327500000000000     -2.791800000000000     -3.901900000000000
H      -5.657300000000000     -1.530900000000000      1.604100000000000
H      -4.059900000000000     -1.053900000000000      1.008700000000000
H       1.759000000000000     -3.739800000000000     -2.141400000000000
H       1.080000000000000     -2.647800000000000     -0.936300000000000
H      -4.102700000000000      0.969300000000000      2.452700000000000
H      -5.710500000000000      0.529100000000000      3.038600000000000
H       1.943100000000000     -0.681800000000000     -2.145000000000000
H       2.564200000000000     -1.706600000000000     -3.441400000000000
H       3.936900000000000      0.083300000000000      1.161100000000000
H       3.404800000000000      1.761500000000000      1.102700000000000
H       4.383100000000000      2.106100000000000      3.426700000000000
H      -6.632200000000000      0.675200000000000      0.742300000000000
H      -5.018300000000000      0.962600000000000      0.095700000000000
H       1.977400000000000      1.404400000000000      3.106800000000000
H       2.532600000000000     -0.260800000000000      3.232100000000000
H       0.355400000000000     -0.228300000000000      2.210300000000000
H       1.535300000000000     -0.825400000000000      1.049100000000000
H       3.438100000000000     -1.958700000000000     -0.516300000000000
H       4.115900000000000     -2.829500000000000     -1.893000000000000
H      -4.883600000000000      3.096600000000000      1.442100000000000
H      -6.499500000000000      2.797300000000000      2.051400000000000
H       1.555900000000000      1.331000000000000     -0.135000000000000
H       0.552800000000000      2.075200000000000      1.114300000000000
H       4.181400000000000      0.200600000000000     -1.468100000000000
H       4.828100000000000     -0.612400000000000     -2.893500000000000
H      -6.517100000000000      4.433700000000000      0.213100000000000
H      -7.490800000000000      3.018600000000000     -0.151400000000000
H      -1.316800000000000      0.527000000000000      0.546000000000000
H      -0.313900000000000     -0.257200000000000     -0.675000000000000
H       5.549400000000000      2.919200000000000      1.436600000000000
H       6.720400000000000      2.297900000000000      2.600000000000000
H       5.767900000000000     -1.246300000000000     -0.046800000000000
H       6.459500000000000     -1.848300000000000     -1.549500000000000
H      -6.253700000000000      3.764200000000000     -2.119800000000000
H      -5.783800000000000      2.137900000000000     -1.673200000000000
H      -0.118000000000000      1.894600000000000     -1.924600000000000
H      -1.064700000000000      2.712900000000000     -0.681600000000000
H       5.602000000000000     -0.659400000000000      2.889600000000000
H       4.534700000000000     -0.210400000000000      4.229600000000000
H       6.157900000000000      0.466600000000000      4.139700000000000
H       7.033300000000000      0.548900000000000     -2.200500000000000
H       7.899400000000000     -0.052200000000000     -0.792700000000000
H      -3.723800000000000      3.143800000000000     -0.494600000000000
H      -4.211700000000000      4.711200000000000     -1.097500000000000
H      -2.994900000000000      1.125200000000000     -1.178700000000000
H      -2.052100000000000      0.424000000000000     -2.472300000000000
H      -3.807900000000000      4.066200000000000     -3.428400000000000
H      -2.222100000000000      2.381200000000000     -3.859900000000000
